# 300K_graph-pace 

384 atoms
1 atom types

0 12.699371184 xlo xhi
0 17.075868901 ylo yhi
0 14.772230437 zlo zhi

0.00000000 0.00000000 0.00000000 xy xz yz

Masses

1 12.0107

Atoms

1 1 25.397371184 34.125318901 29.528930437
2 1 25.398541184000003 19.184338901 15.988170436999999
3 1 15.874291184 17.101508901 14.786240437
4 1 15.874171184 19.235958901 16.017200437
5 1 25.398231184 33.415108900999996 15.987740437
6 1 25.398461184 18.473678901 17.219210437
7 1 15.874201184 17.812088901 16.017240436999998
8 1 15.874081184000001 19.946538901 17.248190436999998
9 1 19.047681183999998 34.125448901 29.529330437
10 1 19.048851184 19.184468901 15.988570437
11 1 22.223981184 17.101378901 14.785840437
12 1 22.223851184 19.235818901 16.016800437
13 1 19.048551184 33.415238900999995 15.988150437
14 1 19.048781184 18.473818901 17.219610437
15 1 22.223871184 17.811958901 16.016840437
16 1 22.223751184 19.946408900999998 17.247790437
17 1 25.397641184 21.318418901 29.529320437
18 1 25.398451184000002 23.453308901 15.988040436999999
19 1 15.874201184 21.370478901 14.786110437
20 1 15.874081184000001 23.504928901 16.017070437
21 1 25.398501184 20.608198901 15.988130436999999
22 1 25.398371184 22.742648901 17.219090437
23 1 15.874101184 22.081058901 16.017110437
24 1 15.873981184 24.215508901 17.248070437
25 1 19.047951184 21.318548901 29.529720437
26 1 19.048761184 23.453438901 15.988440437
27 1 22.223891184000003 21.370338901 14.785710436999999
28 1 22.223761184 23.504788900999998 16.016670437
29 1 19.048821184 20.608338901 15.988530437
30 1 19.048701184000002 22.742788901 17.219480436999998
31 1 22.223781184 22.080928901 16.016710437
32 1 22.223651183999998 24.215368900999998 17.247670437
33 1 25.398141184 34.125688901000004 17.218740437
34 1 25.398381184 19.184258901 18.450210437
35 1 15.874141184 17.101438900999998 17.248280437
36 1 15.874011184 19.235878901 18.479240436999998
37 1 25.398081184 33.415028901 18.449780437
38 1 25.398311184 18.473608901 19.681250437
39 1 15.874041184 17.812018901 18.479280437
40 1 15.873911184 19.946468901 19.710230437
41 1 19.048461184 34.125818901 17.219140437
42 1 19.048701184000002 19.184398901 18.450610436999998
43 1 22.223821184000002 17.101298901 17.247880437
44 1 22.223701184 19.235748901 18.478830437
45 1 19.048391184 33.415168901 18.450180437
46 1 19.048621183999998 18.473738901 19.681650437
47 1 22.223711184000003 17.811888901 18.478880437
48 1 22.223591184 19.946328901 19.709830437
49 1 25.398421184 21.318788900999998 17.219130437
50 1 25.398291184 23.453228901 18.450080437
51 1 15.874051184 21.370398901 17.248150437
52 1 15.873921184 23.504848901 18.479110437
53 1 25.398331184 20.608128901 18.450170437
54 1 25.398221184 22.742568901 19.681120437
55 1 15.873941184 22.080988900999998 18.479150437
56 1 15.873831184 24.215428901 19.710100437
57 1 19.048731184 21.318918901 17.219530437
58 1 19.048611184000002 23.453368901 18.450480437
59 1 22.223731184000002 21.370268901 17.247750437
60 1 22.223611184 23.504718901 18.478710437
61 1 19.048661184 20.608268901 18.450570437
62 1 19.048541184 22.742708901 19.681520437
63 1 22.223631184 22.080848901 18.478750437
64 1 22.223511184 24.215298901 19.709700437
65 1 25.397991184 34.125608901 19.680780437
66 1 25.398231184 19.184188901 20.912250436999997
67 1 15.873981184 17.101358901 19.710320437
68 1 15.873861184 19.235808901 20.941270437
69 1 25.397921183999998 33.414958901 20.911820437
70 1 25.398171184 18.473528900999998 22.143290436999997
71 1 15.873891184 17.811948901 20.941310437
72 1 15.873781184 19.946398901 22.172270436999998
73 1 19.048301184 34.125748901 19.681180437
74 1 19.048541184 19.184328901 20.912650437
75 1 22.223671184 17.101228901 19.709920437
76 1 22.223541184 19.235678901 20.940870437
77 1 19.048231184000002 33.415088901000004 20.912220437
78 1 19.048451184 18.473668901 22.143690437
79 1 22.223551184 17.811808901 20.940920437
80 1 22.223441184000002 19.946258901 22.171870437
81 1 25.398261184 21.318708901 19.681160437
82 1 25.398141184 23.453158901000002 20.912120437
83 1 15.873891184 21.370328901 19.710190437
84 1 15.873771184 23.504778901 20.941150436999997
85 1 25.398211184 20.608048901 20.912200437
86 1 25.398081184 22.742488901 22.143160437
87 1 15.873801184000001 22.080908901 20.941190437
88 1 15.873691184 24.215358901000002 22.172140437
89 1 19.048571184 21.318848901 19.681570436999998
90 1 19.048451184 23.453288901 20.912520436999998
91 1 22.223581184 21.370198901000002 19.709790437
92 1 22.223451183999998 23.504638901 20.940740437
93 1 19.048501184 20.608188901 20.912610436999998
94 1 19.048391184 22.742638901 22.143560436999998
95 1 22.223481184 22.080778901 20.940790437
96 1 22.223361183999998 24.215228901 22.171740437
97 1 25.397831184 34.125538901 22.142820436999997
98 1 25.398071184000003 19.184118900999998 23.374290437
99 1 15.873821184 17.101288901 22.172360437
100 1 15.873701184 19.235738901 23.403310437000002
101 1 25.397771184 33.414878900999994 23.373860436999998
102 1 25.398011183999998 18.473458901 24.605330437
103 1 15.873761184 17.811878901 23.403350437
104 1 15.873631184 19.946318900999998 24.634300437
105 1 19.048151183999998 34.125668901 22.143220437
106 1 19.048391184 19.184248901 23.374690436999998
107 1 22.223511184 17.101148901 22.171960437
108 1 22.223391184 19.235598901 23.402910437
109 1 19.048071184 33.415018900999996 23.374260436999997
110 1 19.048311184 18.473598901 24.605730437
111 1 22.223411184 17.811738901 23.402950437
112 1 22.223291184 19.946178901 24.633910436999997
113 1 25.398101183999998 21.318638901 22.143200436999997
114 1 25.397981184000002 23.453078900999998 23.374160437
115 1 15.873731184 21.370258901 22.172230437
116 1 15.873611184000001 23.504698900999998 23.403180437
117 1 25.398051184 20.607978901 23.374240436999997
118 1 25.397921183999998 22.742418901 24.605200437
119 1 15.873661184 22.080838901 23.403220437
120 1 15.873541184 24.215288901 24.634180436999998
121 1 19.048421184 21.318768901 22.143600437
122 1 19.048301184 23.453218901 23.374560437
123 1 22.223421184000003 21.370118900999998 22.171830437
124 1 22.223301184 23.504568901 23.402780436999997
125 1 19.048351184 20.608118901 23.374650437
126 1 19.048231184000002 22.742558901 24.605600437
127 1 22.223321184 22.080708901 23.402830437
128 1 22.223201184 24.215148901 24.633780437
129 1 25.397681184 34.125468901000005 24.604860437
130 1 25.397921183999998 19.184038901 25.836320436999998
131 1 15.873681184 17.101228901 24.634390437
132 1 15.873551184 19.235658901 25.865350437
133 1 25.397611184 33.414808901 25.835900437
134 1 25.397851184 18.473388901 27.067370437
135 1 15.873611184000001 17.811798901 25.865390437
136 1 15.873461184 19.946238901 27.096350436999998
137 1 19.047991184 34.125598901000004 24.605260437
138 1 19.048231184000002 19.184178901 25.836730437
139 1 22.223351184000002 17.101078901 24.633990437
140 1 22.223231184 19.235528901 25.864950436999997
141 1 19.047921184 33.414938901 25.836300437
142 1 19.048171184 18.473518901 27.067770437
143 1 22.223261184000002 17.811658901 25.864990437
144 1 22.223141184 19.946108901 27.095950437
145 1 25.397951184 21.318558901 24.605240437
146 1 25.397831184 23.453008901 25.836200437
147 1 15.873581184 21.370178901 24.634270436999998
148 1 15.873461184 23.504628901 25.865220436999998
149 1 25.397891184000002 20.607908901 25.836280437
150 1 25.397761184 22.742348901 27.067240437
151 1 15.873501184 22.080768901 25.865260437
152 1 15.873371184 24.215208901 27.096220437
153 1 19.048261184 21.318698900999998 24.605640436999998
154 1 19.048141184000002 23.453138901 25.836600437
155 1 22.223261184000002 21.370048901 24.633870437
156 1 22.223141184 23.504488901 25.864820437
157 1 19.048201184 20.608038901 25.836680437
158 1 19.048061184 22.742488901 27.067640437
159 1 22.223171184 22.080628901 25.864860436999997
160 1 22.223041184 24.215078901 27.095820437
161 1 25.397521184 34.125388901 27.066890436999998
162 1 25.397761184 19.183968901 28.298360437
163 1 15.873511184 17.101138901 27.096430437
164 1 15.873391184 19.235588901 28.327390437
165 1 25.397471184 33.414738901 28.297940437
166 1 25.397701184 18.473308901 29.529400437
167 1 15.873421184 17.811718901 28.327430436999997
168 1 15.874231184 19.946608901 14.786160437
169 1 19.047841184 34.125528900999996 27.067300437
170 1 19.048071184 19.184098901 28.298760437
171 1 22.223201184 17.101008901 27.096030437
172 1 22.223081184 19.235448900999998 28.326990437
173 1 19.047771184 33.414868901 28.298340437
174 1 19.048011184 18.473448901 29.529810437000002
175 1 22.223101184 17.811588901 28.327030436999998
176 1 22.223911184000002 19.946478901 14.785760436999999
177 1 25.397791184 21.318488901 27.067280437
178 1 25.397671184 23.452938901 28.298230437
179 1 15.873421184 21.370108901000002 27.096310437
180 1 15.873301184 23.504558901 28.327260437
181 1 25.397721183999998 20.607828901 28.298320437
182 1 25.397601184000003 22.742278901 29.529280436999997
183 1 15.873321184 22.080688901 28.327300436999998
184 1 15.874141184 24.215578901 14.786030436999999
185 1 19.048111184 21.318618901 27.067680437
186 1 19.047981184 23.453068901 28.298640437
187 1 22.223111184 21.369968901 27.095900436999997
188 1 22.222991184 23.504418901 28.326860437
189 1 19.048041184 20.607968901 28.298720437
190 1 19.047911184 22.742418901 29.529680437
191 1 22.223011184 22.080558901 28.326900437
192 1 22.223801184000003 24.215448901 14.785630437
193 1 25.397551184 25.587378901 29.529190436999997
194 1 25.398361184000002 27.722268901 15.987910437
195 1 15.874111184 25.639448901 14.785990436999999
196 1 15.873991184000001 27.773888901 16.016940437
197 1 25.398401184 24.877168901 15.988000437
198 1 25.398291184 27.011618901 17.218960437
199 1 15.874021184 26.350028901 16.016980437
200 1 15.873891184 28.484468901 17.247940437
201 1 19.047861184 25.587518901 29.529590437
202 1 19.048671184 27.722408901 15.988320436999999
203 1 22.223801184000003 25.639308901 14.785580437
204 1 22.223671184 27.773758901 16.016540437
205 1 19.048721184 24.877308901 15.988400437
206 1 19.048601184 27.011748900999997 17.219360437
207 1 22.223691184 26.349888901 16.016580437
208 1 22.223581184 28.484338901 17.247540436999998
209 1 25.397461184 29.856348901 29.529060437
210 1 25.398271184000002 31.991238901 15.987790437
211 1 15.874021184 29.908408901 14.785860436999998
212 1 15.873901184000001 32.042858901 16.016810437
213 1 25.398341184 29.146138901 15.987870437
214 1 25.398201184 31.280588901 17.218830437
215 1 15.873931184 30.618988901 16.016850437
216 1 15.873801184000001 32.753438900999996 17.247810437
217 1 19.047771184 29.856478901 29.529460436999997
218 1 19.048581184 31.991368901 15.988190437
219 1 22.223711184000003 29.908278901 14.785460437
220 1 22.223581184 32.042718901 16.016410436999998
221 1 19.048631184 29.146268901 15.988270436999999
222 1 19.048521184000002 31.280718901 17.219230437
223 1 22.223611184 30.618858901 16.016450437
224 1 22.223471184 32.753308901 17.247410437
225 1 25.398331184 25.587748900999998 17.219000437
226 1 25.398201184 27.722198901 18.449950437
227 1 15.873961184 25.639368900999997 17.248020437
228 1 15.873831184 27.773818901 18.478980437
229 1 25.398251184000003 24.877098901 18.450040437
230 1 25.398131184 27.011538901 19.680990437
231 1 15.873871184 26.349948900999998 18.479020437
232 1 15.873741184 28.484398901 19.709980437
233 1 19.048641184 25.587888901 17.219400436999997
234 1 19.048521184000002 27.722328900999997 18.450350436999997
235 1 22.223641184 25.639238901 17.247620437
236 1 22.223521184 27.773678901 18.478580436999998
237 1 19.048571184 24.877228901 18.450440436999997
238 1 19.048501184 27.011668901 19.681390436999997
239 1 22.223541184 26.349818901 18.478620437
240 1 22.223431184 28.484268901 19.709580437
241 1 25.398241184 29.856718901 17.218870437
242 1 25.398111184 31.991168901 18.449820437
243 1 15.873871184 29.908338901 17.247900437
244 1 15.873741184 32.042788901 18.478850437
245 1 25.398171184 29.146058901 18.449910437
246 1 25.398051184 31.280508900999997 19.680870437
247 1 15.873771184 30.618918901 18.478890437
248 1 15.873661184 32.753368901 19.709850437
249 1 19.048551184 29.856848901 17.219270437
250 1 19.048431184000002 31.991298901 18.450230437
251 1 22.223551184 29.908198901 17.247490437
252 1 22.223431184 32.042648901 18.478450437
253 1 19.048501184 29.146198900999998 18.450310437
254 1 19.048371184 31.280638901 19.681270437
255 1 22.223461184 30.618788901000002 18.478490436999998
256 1 22.223311184 32.753238901 19.709450437
257 1 25.398171184 25.587678901 19.681040437
258 1 25.398051184 27.722128900999998 20.911990437
259 1 15.873801184000001 25.639298901 19.710060437
260 1 15.873681184 27.773738901 20.941020437
261 1 25.398111184 24.877018901 20.912070437
262 1 25.398001184 27.011458900999997 22.143030437
263 1 15.873711184000001 26.349878901 20.941060436999997
264 1 15.873591184 28.484328900999998 22.172010436999997
265 1 19.048481184 25.587808901 19.681440437
266 1 19.048391184 27.722238900999997 20.912390437
267 1 22.223491184 25.639158901000002 19.709660437
268 1 22.223361183999998 27.773608901 20.940620437
269 1 19.048461184 24.877148900999998 20.912480437
270 1 19.048361184 27.011578901 22.143440437
271 1 22.223391184 26.349748900999998 20.940660437
272 1 22.223271183999998 28.484188901 22.171610437
273 1 25.398081184 29.856648901 19.680910437
274 1 25.397961184 31.991088900999998 20.911860437
275 1 15.873711184000001 29.908268901 19.709930437
276 1 15.873591184 32.042708901 20.940890437
277 1 25.398011183999998 29.145988901 20.911950436999998
278 1 25.397891184000002 31.280438901 22.142900436999998
279 1 15.873611184000001 30.618848901 20.940930437
280 1 15.873491184 32.753288901 22.171880437
281 1 19.048391184 29.856778901 19.681310437
282 1 19.048271184 31.991228901 20.912260437
283 1 22.223401184 29.908128900999998 19.709530436999998
284 1 22.223271183999998 32.042578901 20.940490437
285 1 19.048371184 29.146108900999998 20.912350437
286 1 19.048211184 31.280568901000002 22.143300437
287 1 22.223301184 30.618708900999998 20.940530437
288 1 22.223171184 32.753158901 22.171490437
289 1 25.398011183999998 25.587598901 22.143070437
290 1 25.397891184000002 27.722048901 23.374030437000002
291 1 15.873641184 25.639218901 22.172100436999997
292 1 15.873521184000001 27.773668901 23.403060437
293 1 25.397961184 24.876938901 23.374110437
294 1 25.397861184 27.011388901 24.605070437
295 1 15.873571184 26.349808901 23.403090437
296 1 15.873441184 28.484248901 24.634050437
297 1 19.048351184 25.587718901000002 22.143480437
298 1 19.048211184 27.722178901 23.374430437
299 1 22.223331184000003 25.639088901 22.171700437
300 1 22.223211184 27.773538901000002 23.402650437
301 1 19.048301184 24.877078901 23.374520437
302 1 19.048151183999998 27.011528901 24.605470437
303 1 22.223241184000003 26.349668901 23.402700437
304 1 22.223111184 28.484118901000002 24.633650437
305 1 25.397921183999998 29.856568901 22.142950437
306 1 25.397801184000002 31.991018901 23.373900437
307 1 15.873551184 29.908188901 22.171970437
308 1 15.873431184000001 32.042638901000004 23.402930437
309 1 25.397871184 29.145908901 23.373990437
310 1 25.397741184 31.280358901 24.604940437
311 1 15.873471184 30.618768901 23.402970437
312 1 15.873381184 32.753228901 24.633920437
313 1 19.048241184 29.856708900999998 22.143350437
314 1 19.048121184 31.991148901 23.374300437
315 1 22.223241184000003 29.908058901 22.171570437
316 1 22.223121184 32.042498901 23.402530437
317 1 19.048201184 29.146048901 23.374390437
318 1 19.048051184000002 31.280498901 24.605340437
319 1 22.223141184 30.618638901 23.402570437
320 1 22.223021184 32.753088901 24.633520437
321 1 25.397861184 25.587528901 24.605110437
322 1 25.397741184 27.721978901 25.836070437
323 1 15.873491184 25.639148901 24.634140437
324 1 15.873371184 27.773598901 25.865090437
325 1 25.397811184 24.876868901 25.836150437
326 1 25.397691184000003 27.011318901 27.067110436999997
327 1 15.873421184 26.349728901 25.865130436999998
328 1 15.873281184 28.484178901 27.096090437
329 1 19.048171184 25.587668901 24.605510437
330 1 19.048051184000002 27.722108901 25.836470437
331 1 22.223171184 25.639018901 24.633740437
332 1 22.223051184 27.773458900999998 25.864690437
333 1 19.048101184 24.877008901 25.836560437
334 1 19.047981184 27.011458900999997 27.067510437
335 1 22.223071184 26.349598901 25.864740437000002
336 1 22.222961184 28.484038900999998 27.095690437000002
337 1 25.397771184 29.856498901000002 24.604980437000002
338 1 25.397641184 31.990938901 25.835940436999998
339 1 15.873401184 29.908118901 24.634010437
340 1 15.873281184 32.042568900999996 25.864960437
341 1 25.397711184000002 29.145838900999998 25.836020437
342 1 25.397591184 31.280288901 27.066980436999998
343 1 15.873331184000001 30.618708900999998 25.865000437
344 1 15.873201184000001 32.753148901 27.095960437
345 1 19.048081184 29.856628901 24.605390436999997
346 1 19.047961184000002 31.991078901 25.836340436999997
347 1 22.223081184 29.907978901 24.633610437
348 1 22.222961184 32.042428901 25.864560437
349 1 19.048021184 29.145978901 25.836430436999997
350 1 19.047891184 31.280418900999997 27.067380436999997
351 1 22.222991184 30.618558901 25.864610437
352 1 22.222861184000003 32.753008901 27.095560437
353 1 25.397701184 25.587458900999998 27.067150437
354 1 25.397581184 27.721898901 28.298110437
355 1 15.873331184000001 25.639078900999998 27.096180437
356 1 15.873211184 27.773518901 28.327130437
357 1 25.397631183999998 24.876798901 28.298190437
358 1 25.397511184000003 27.011248901000002 29.529150437
359 1 15.873251184 26.349658900999998 28.327170437
360 1 15.874051184 28.484548901 14.785900436999999
361 1 19.048021184 25.587588901 27.067550437
362 1 19.047891184 27.722038900999998 28.298510436999997
363 1 22.223021184 25.638938901 27.095780437
364 1 22.222901184 27.773388901 28.326730437000002
365 1 19.047941184 24.876938901 28.298600436999997
366 1 19.047831184 27.011378901 29.529550436999997
367 1 22.222911184 26.349518901 28.326780437
368 1 22.223741183999998 28.484408901000002 14.785500437
369 1 25.397611184 29.856418900999998 27.067020437
370 1 25.397491184 31.990868901 28.297980437
371 1 15.873241184000001 29.908038900999998 27.096050437
372 1 15.873121184 32.042488901 28.327000437
373 1 25.397561184 29.145768901 28.298060436999997
374 1 25.397431184 31.280208901 29.529020437
375 1 15.873161184 30.618618900999998 28.327040437
376 1 15.873961184 32.753518901 14.785770437
377 1 19.047931184 29.856558901 27.067420437
378 1 19.047801184 31.991008901 28.298380437
379 1 22.222931184 29.907908901 27.095650437
380 1 22.222811184 32.042358901 28.326600437
381 1 19.047851184000002 29.145898901 28.298470437
382 1 19.047741184 31.280348901 29.529420437
383 1 22.222841184 30.618488901 28.326650436999998
384 1 22.223641184 32.753378901 14.785370437
