# CASE-0_INDEP_0-pace 

216 atoms
1 atom types

0 10.539950876 xlo xhi
0 10.539950876 ylo yhi
0 10.539950876 zlo zhi

0.00000000 0.00000000 0.00000000 xy xz yz

Masses

1 12.0107

Atoms

1 1 0.43917 0.43917 0.43917
2 1 3.07415 3.07415 3.07415
3 1 2.19582 0.43917 2.19582
4 1 1.31750 3.07415 1.31750
5 1 0.43917 2.19582 2.19582
6 1 3.07415 1.31750 1.31750
7 1 2.19582 2.19582 0.43917
8 1 1.31750 1.31750 3.07415
9 1 0.43917 0.43917 3.95248
10 1 3.07415 3.07415 6.58747
11 1 2.19582 0.43917 5.70914
12 1 1.31750 3.07415 4.83081
13 1 0.43917 2.19582 5.70914
14 1 3.07415 1.31750 4.83081
15 1 2.19582 2.19582 3.95248
16 1 1.31750 1.31750 6.58747
17 1 0.43917 0.43917 7.46580
18 1 3.07415 3.07415 10.10079
19 1 2.19582 0.43917 9.22246
20 1 1.31750 3.07415 8.34413
21 1 0.43917 2.19582 9.22246
22 1 3.07415 1.31750 8.34413
23 1 2.19582 2.19582 7.46580
24 1 1.31750 1.31750 10.10079
25 1 0.43917 3.95248 0.43917
26 1 3.07415 6.58747 3.07415
27 1 2.19582 3.95248 2.19582
28 1 1.31750 6.58747 1.31750
29 1 0.43917 5.70914 2.19582
30 1 3.07415 4.83081 1.31750
31 1 2.19582 5.70914 0.43917
32 1 1.31750 4.83081 3.07415
33 1 0.43917 3.95248 3.95248
34 1 3.07415 6.58747 6.58747
35 1 2.19582 3.95248 5.70914
36 1 1.31750 6.58747 4.83081
37 1 0.43917 5.70914 5.70914
38 1 3.07415 4.83081 4.83081
39 1 2.19582 5.70914 3.95248
40 1 1.31750 4.83081 6.58747
41 1 0.43917 3.95248 7.46580
42 1 3.07415 6.58747 10.10079
43 1 2.19582 3.95248 9.22246
44 1 1.31750 6.58747 8.34413
45 1 0.43917 5.70914 9.22246
46 1 3.07415 4.83081 8.34413
47 1 2.19582 5.70914 7.46580
48 1 1.31750 4.83081 10.10079
49 1 0.43917 7.46580 0.43917
50 1 3.07415 10.10079 3.07415
51 1 2.19582 7.46580 2.19582
52 1 1.31750 10.10079 1.31750
53 1 0.43917 9.22246 2.19582
54 1 3.07415 8.34413 1.31750
55 1 2.19582 9.22246 0.43917
56 1 1.31750 8.34413 3.07415
57 1 0.43917 7.46580 3.95248
58 1 3.07415 10.10079 6.58747
59 1 2.19582 7.46580 5.70914
60 1 1.31750 10.10079 4.83081
61 1 0.43917 9.22246 5.70914
62 1 3.07415 8.34413 4.83081
63 1 2.19582 9.22246 3.95248
64 1 1.31750 8.34413 6.58747
65 1 0.43917 7.46580 7.46580
66 1 3.07415 10.10079 10.10079
67 1 2.19582 7.46580 9.22246
68 1 1.31750 10.10079 8.34413
69 1 0.43917 9.22246 9.22246
70 1 3.07415 8.34413 8.34413
71 1 2.19582 9.22246 7.46580
72 1 1.31750 8.34413 10.10079
73 1 3.95248 0.43917 0.43917
74 1 6.58747 3.07415 3.07415
75 1 5.70914 0.43917 2.19582
76 1 4.83081 3.07415 1.31750
77 1 3.95248 2.19582 2.19582
78 1 6.58747 1.31750 1.31750
79 1 5.70914 2.19582 0.43917
80 1 4.83081 1.31750 3.07415
81 1 3.95248 0.43917 3.95248
82 1 6.58747 3.07415 6.58747
83 1 5.70914 0.43917 5.70914
84 1 4.83081 3.07415 4.83081
85 1 3.95248 2.19582 5.70914
86 1 6.58747 1.31750 4.83081
87 1 5.70914 2.19582 3.95248
88 1 4.83081 1.31750 6.58747
89 1 3.95248 0.43917 7.46580
90 1 6.58747 3.07415 10.10079
91 1 5.70914 0.43917 9.22246
92 1 4.83081 3.07415 8.34413
93 1 3.95248 2.19582 9.22246
94 1 6.58747 1.31750 8.34413
95 1 5.70914 2.19582 7.46580
96 1 4.83081 1.31750 10.10079
97 1 3.95248 3.95248 0.43917
98 1 6.58747 6.58747 3.07415
99 1 5.70914 3.95248 2.19582
100 1 4.83081 6.58747 1.31750
101 1 3.95248 5.70914 2.19582
102 1 6.58747 4.83081 1.31750
103 1 5.70914 5.70914 0.43917
104 1 4.83081 4.83081 3.07415
105 1 3.95248 3.95248 3.95248
106 1 6.58747 6.58747 6.58747
107 1 5.70914 3.95248 5.70914
108 1 4.83081 6.58747 4.83081
109 1 3.95248 5.70914 5.70914
110 1 6.58747 4.83081 4.83081
111 1 5.70914 5.70914 3.95248
112 1 4.83081 4.83081 6.58747
113 1 3.95248 3.95248 7.46580
114 1 6.58747 6.58747 10.10079
115 1 5.70914 3.95248 9.22246
116 1 4.83081 6.58747 8.34413
117 1 3.95248 5.70914 9.22246
118 1 6.58747 4.83081 8.34413
119 1 5.70914 5.70914 7.46580
120 1 4.83081 4.83081 10.10079
121 1 3.95248 7.46580 0.43917
122 1 6.58747 10.10079 3.07415
123 1 5.70914 7.46580 2.19582
124 1 4.83081 10.10079 1.31750
125 1 3.95248 9.22246 2.19582
126 1 6.58747 8.34413 1.31750
127 1 5.70914 9.22246 0.43917
128 1 4.83081 8.34413 3.07415
129 1 3.95248 7.46580 3.95248
130 1 6.58747 10.10079 6.58747
131 1 5.70914 7.46580 5.70914
132 1 4.83081 10.10079 4.83081
133 1 3.95248 9.22246 5.70914
134 1 6.58747 8.34413 4.83081
135 1 5.70914 9.22246 3.95248
136 1 4.83081 8.34413 6.58747
137 1 3.95248 7.46580 7.46580
138 1 6.58747 10.10079 10.10079
139 1 5.70914 7.46580 9.22246
140 1 4.83081 10.10079 8.34413
141 1 3.95248 9.22246 9.22246
142 1 6.58747 8.34413 8.34413
143 1 5.70914 9.22246 7.46580
144 1 4.83081 8.34413 10.10079
145 1 7.46580 0.43917 0.43917
146 1 10.10079 3.07415 3.07415
147 1 9.22246 0.43917 2.19582
148 1 8.34413 3.07415 1.31750
149 1 7.46580 2.19582 2.19582
150 1 10.10079 1.31750 1.31750
151 1 9.22246 2.19582 0.43917
152 1 8.34413 1.31750 3.07415
153 1 7.46580 0.43917 3.95248
154 1 10.10079 3.07415 6.58747
155 1 9.22246 0.43917 5.70914
156 1 8.34413 3.07415 4.83081
157 1 7.46580 2.19582 5.70914
158 1 10.10079 1.31750 4.83081
159 1 9.22246 2.19582 3.95248
160 1 8.34413 1.31750 6.58747
161 1 7.46580 0.43917 7.46580
162 1 10.10079 3.07415 10.10079
163 1 9.22246 0.43917 9.22246
164 1 8.34413 3.07415 8.34413
165 1 7.46580 2.19582 9.22246
166 1 10.10079 1.31750 8.34413
167 1 9.22246 2.19582 7.46580
168 1 8.34413 1.31750 10.10079
169 1 7.46580 3.95248 0.43917
170 1 10.10079 6.58747 3.07415
171 1 9.22246 3.95248 2.19582
172 1 8.34413 6.58747 1.31750
173 1 7.46580 5.70914 2.19582
174 1 10.10079 4.83081 1.31750
175 1 9.22246 5.70914 0.43917
176 1 8.34413 4.83081 3.07415
177 1 7.46580 3.95248 3.95248
178 1 10.10079 6.58747 6.58747
179 1 9.22246 3.95248 5.70914
180 1 8.34413 6.58747 4.83081
181 1 7.46580 5.70914 5.70914
182 1 10.10079 4.83081 4.83081
183 1 9.22246 5.70914 3.95248
184 1 8.34413 4.83081 6.58747
185 1 7.46580 3.95248 7.46580
186 1 10.10079 6.58747 10.10079
187 1 9.22246 3.95248 9.22246
188 1 8.34413 6.58747 8.34413
189 1 7.46580 5.70914 9.22246
190 1 10.10079 4.83081 8.34413
191 1 9.22246 5.70914 7.46580
192 1 8.34413 4.83081 10.10079
193 1 7.46580 7.46580 0.43917
194 1 10.10079 10.10079 3.07415
195 1 9.22246 7.46580 2.19582
196 1 8.34413 10.10079 1.31750
197 1 7.46580 9.22246 2.19582
198 1 10.10079 8.34413 1.31750
199 1 9.22246 9.22246 0.43917
200 1 8.34413 8.34413 3.07415
201 1 7.46580 7.46580 3.95248
202 1 10.10079 10.10079 6.58747
203 1 9.22246 7.46580 5.70914
204 1 8.34413 10.10079 4.83081
205 1 7.46580 9.22246 5.70914
206 1 10.10079 8.34413 4.83081
207 1 9.22246 9.22246 3.95248
208 1 8.34413 8.34413 6.58747
209 1 7.46580 7.46580 7.46580
210 1 10.10079 10.10079 10.10079
211 1 9.22246 7.46580 9.22246
212 1 8.34413 10.10079 8.34413
213 1 7.46580 9.22246 9.22246
214 1 10.10079 8.34413 8.34413
215 1 9.22246 9.22246 7.46580
216 1 8.34413 8.34413 10.10079
