# CASE-3_INDEP_0-pace 

64 atoms
1 atom types

0 10.847659922 xlo xhi
0 10.847659922 ylo yhi
0 10.847659922 zlo zhi

0.00000000 0.00000000 0.00000000 xy xz yz

Masses

1 12.0107

Atoms

1 1 0.02013 10.56714 0.05005
2 1 7.95405 7.98227 0.09434
3 1 10.67682 8.25756 8.23392
4 1 8.29979 0.20971 8.27283
5 1 1.12707 1.49895 1.51309
6 1 9.51269 9.37983 1.57538
7 1 1.24041 9.32259 9.42097
8 1 10.08324 1.16566 9.65950
9 1 0.18502 0.06638 5.51603
10 1 7.80731 8.43166 5.34043
11 1 10.81314 8.19755 2.98503
12 1 7.99011 10.84650 2.85142
13 1 1.34180 1.63653 6.88045
14 1 9.48536 9.53971 6.57941
15 1 1.46217 9.48482 4.24187
16 1 9.66920 1.24454 4.18821
17 1 10.78613 5.64334 0.05314
18 1 8.62567 2.50154 10.82238
19 1 10.59516 2.88637 8.23399
20 1 8.24025 5.72434 7.71978
21 1 1.35907 7.13756 1.75042
22 1 9.27307 4.30513 1.39228
23 1 1.49896 4.09994 9.68928
24 1 9.27522 6.64344 9.29765
25 1 10.58572 5.59454 5.14136
26 1 8.20368 2.46549 5.62696
27 1 10.52100 2.67638 2.80613
28 1 8.11374 5.63162 2.78838
29 1 1.17711 6.89194 6.63764
30 1 9.60778 3.93999 6.77252
31 1 1.42100 3.79781 3.98551
32 1 9.38235 6.99858 4.08979
33 1 5.37926 10.77815 10.77504
34 1 2.62961 7.98973 10.25114
35 1 5.90488 8.35496 8.12159
36 1 2.79844 10.79378 8.05380
37 1 7.25357 1.02473 1.07822
38 1 3.59549 9.76219 0.96934
39 1 6.95691 9.78843 9.68427
40 1 3.97278 1.20654 9.62806
41 1 5.37053 0.05048 5.32851
42 1 2.74909 8.01083 5.41521
43 1 4.94315 7.68766 2.40412
44 1 2.40266 10.80642 2.63643
45 1 6.60228 1.37507 6.95841
46 1 4.28479 9.34693 6.83332
47 1 6.51799 9.49875 4.01206
48 1 4.08447 1.31655 4.23533
49 1 5.71976 5.36642 10.66056
50 1 2.79072 2.64290 0.17434
51 1 5.09335 2.55949 8.25683
52 1 2.92607 5.83720 8.07537
53 1 6.63381 6.66715 1.28721
54 1 4.32024 3.85317 1.44103
55 1 7.22692 4.15633 9.18333
56 1 4.35044 6.90390 8.99495
57 1 5.61192 5.29243 5.46324
58 1 2.68736 2.86945 5.76892
59 1 5.42068 2.62961 2.98226
60 1 2.70398 4.95474 2.64109
61 1 6.86560 6.97124 6.52774
62 1 3.97950 4.14900 6.96051
63 1 6.98947 4.09022 4.15463
64 1 3.72049 6.46890 3.95813
