# 7000K_2.0gcc-pace 

64 atoms
1 atom types

0 8.609793386 xlo xhi
0 8.609793386 ylo yhi
0 8.609793386 zlo zhi

0.00000000 0.00000000 0.00000000 xy xz yz

Masses

1 12.0107

Atoms

1 1 8.625773386 16.996943385999998 8.649513386
2 1 14.922923386 14.945323386 8.684673386
3 1 17.083993386 15.163823386 15.145063386
4 1 15.197343386 8.776243385999999 15.175943386
5 1 9.504353386 9.799513386 9.810733385999999
6 1 16.160023386 16.054563385999998 9.860173386
7 1 9.594303386 16.009133386 16.087223385999998
8 1 16.612863386 9.534983386 16.276543386
9 1 8.756643386 8.662473386 12.987873386
10 1 14.806453386 15.302003385999999 12.848493386
11 1 17.192183386 15.116193385999999 10.979013386
12 1 14.951553386 17.218663386 10.872963386
13 1 9.674783386 9.908713386 14.070813386000001
14 1 16.138333386 16.181463386 13.831873386
15 1 9.770313386 16.137903385999998 11.976563385999999
16 1 16.284243386 9.597583386 11.933973386
17 1 17.170753386 13.088913386 8.651963386
18 1 15.455993386 10.595263386 17.199523386
19 1 17.019183386 10.900703386 15.145113385999998
20 1 15.150083385999999 13.153203386 14.736993386
21 1 9.688493386 14.274883385999999 9.999103386
22 1 15.969833386 12.026783386 9.714843386
23 1 9.799523386 11.863923386 16.300173386
24 1 15.971543386 13.882703386 15.989343386
25 1 17.011693385999997 13.050183386 12.690493386
26 1 15.121053386 10.566653386 13.075913386
27 1 16.960323386 10.734043386 10.837023386
28 1 15.049673385999998 13.079613386 10.822933385999999
29 1 9.544073385999999 14.079923386 13.878093386
30 1 16.235493386 11.736963386 13.985153386
31 1 9.737633385999999 11.624123386 11.773093386
32 1 16.056573386 14.164573386 11.855863386
33 1 12.879313386 17.164413386 17.161943385999997
34 1 10.696913386 14.951243386 16.746123386
35 1 13.296503386 15.241133386 15.055903386
36 1 10.830913385999999 17.176823386000002 15.002103386
37 1 14.366953385999999 9.423123386 9.465573385999999
38 1 11.463533386 16.358053386 9.379163386
39 1 14.131493385999999 16.378883386 16.296203386000002
40 1 11.762993386 9.567423386 16.251593386
41 1 12.872383386 8.649853386 12.839033386
42 1 10.791743386 14.967993386 12.907853386
43 1 12.533173386 14.711493386 10.517943385999999
44 1 10.516783386 17.186853386 10.702333386
45 1 13.850023386 9.701183386 14.132693386
46 1 12.010633386 16.028453386 14.033403386
47 1 13.783123386 16.148953386 11.794163386
48 1 11.851633386 9.654733386 11.971383386
49 1 13.149573386 12.869123386 17.071083385999998
50 1 10.824793386 10.707463386 8.748163386
51 1 12.652393386 10.641263386 15.163243386
52 1 10.932213386 13.242783386 15.019223386
53 1 13.875053386 13.901513386 9.631453386
54 1 12.038773385999999 11.668063386 9.753533385999999
55 1 14.345803386 11.908673386 15.898603386
56 1 12.062733386 14.089423386 15.749083385999999
57 1 13.063973386 12.810403386 12.945973385999999
58 1 10.742753386 10.887273386 13.188593386
59 1 12.912193385999998 10.696913386 10.976813386
60 1 10.755943386 12.542373386 10.706023386
61 1 14.059023386 14.142863386 13.790863386
62 1 11.768323385999999 11.902853386 14.134353386
63 1 14.157343386 11.856203386 11.907333386
64 1 11.562743386 13.744163386 11.751363386
