# CASE-5_INDEP_0-pace 

200 atoms
1 atom types

0 10.349112 xlo xhi
0 10.349112 ylo yhi
0 10.349112 zlo zhi

0.00000000 0.00000000 0.00000000 xy xz yz

Masses

1 12.0107

Atoms

1 1 8.77042027 9.46573949 1.03194437
2 1 2.935961 4.25645619 3.84564017
3 1 2.21133848 6.78134535 1.74303232
4 1 1.36822161 2.11757306 5.41661271
5 1 -3.53740552 12.69921638 5.18550425
6 1 0.40752375 3.04427793 0.56798909
7 1 8.51134754 1.12505154 2.7607124
8 1 3.56384328 7.21208578 5.71619495
9 1 2.23805626 11.04773035 9.77209545
10 1 7.07936291 3.45619976 12.30204229
11 1 12.26186973 2.46762944 1.5383059
12 1 3.39495796 0.70287573 1.6102153
13 1 10.03122844 8.96255345 2.70340467
14 1 6.96918696 1.23076811 5.82253571
15 1 9.52556787 6.70630356 6.79156738
16 1 1.00335275 -2.87349132 6.457993
17 1 2.51781095 1.6258828 7.42578448
18 1 2.90968878 7.05825442 0.58148541
19 1 -0.79446492 3.37468008 7.01166625
20 1 4.19678458 2.78408463 4.91285349
21 1 5.86256516 8.28052143 3.99946552
22 1 2.80272328 7.15862699 4.6120038
23 1 8.31569082 1.76502188 6.54231576
24 1 9.05997707 5.65753351 6.46662801
25 1 3.88061673 5.59323929 5.87349162
26 1 4.04820291 5.15229169 4.3466524
27 1 1.29556537 5.72464434 8.07524526
28 1 -0.39356497 7.73935049 7.65057143
29 1 1.66374786 4.68462703 2.22047542
30 1 5.9313224 0.87151823 3.32414715
31 1 8.88623638 9.72964064 8.92050721
32 1 4.15971449 9.09098393 6.84056223
33 1 7.2709921 4.2434532 3.19898033
34 1 3.96941864 7.94379871 1.48850912
35 1 0.17580455 8.44319234 -0.11008999
36 1 6.95169448 -1.17705176 9.93476829
37 1 6.68173644 0.6435035 1.78174884
38 1 1.65740221 6.28475477 6.61031203
39 1 1.5903698 6.25122999 -0.25370529
40 1 1.50336191 8.98446951 2.90469018
41 1 7.94316727 1.79928614 7.91179043
42 1 5.86740182 8.66170188 11.10967704
43 1 1.96417089 8.20169158 7.17443969
44 1 9.8407004 4.57588504 0.44421782
45 1 8.01934522 10.16120275 3.69239339
46 1 2.95858545 0.80126568 3.11550239
47 1 2.14473703 -0.33144187 3.71875943
48 1 -0.85522799 -2.62969083 5.45862685
49 1 1.40922697 1.65084885 4.02910558
50 1 5.70788099 0.10740631 6.41485252
51 1 6.48684101 1.38930528 -0.1094576
52 1 0.59364378 2.43870621 8.85339562
53 1 7.40834957 4.22077326 7.21068718
54 1 10.15932766 -0.51586236 3.44672416
55 1 1.69108211 4.92834504 -1.29616146
56 1 4.51981128 7.95774248 -0.99705489
57 1 7.52709624 -0.21872374 8.82125793
58 1 3.77428368 -0.218829 7.81273664
59 1 7.78872572 3.31671002 10.21846844
60 1 9.82977027 0.34437547 8.77770883
61 1 -0.32965975 1.05070378 2.55417275
62 1 1.59925266 8.34991639 10.59207086
63 1 0.48371272 -0.25866769 -0.30904642
64 1 2.9700666 3.0611732 5.33983126
65 1 6.37609391 10.68262434 4.97941194
66 1 11.47260658 0.33207283 1.62897581
67 1 2.58146449 -1.48544259 9.23495418
68 1 1.30609798 6.69349337 -1.51651572
69 1 0.04940333 6.88608592 4.92052076
70 1 2.19006775 2.54887461 6.43364398
71 1 0.9523479 0.18545869 4.38549224
72 1 4.004168 9.11046002 9.46320311
73 1 -0.09991616 4.90618204 8.26197383
74 1 8.95589763 5.18676847 8.92410516
75 1 8.47379296 3.81386486 6.07258851
76 1 -0.11503444 5.60658078 4.31344811
77 1 6.78841433 2.78498513 7.51563621
78 1 11.35727386 10.44401696 6.60847044
79 1 6.51054374 7.85735598 -2.47374112
80 1 7.98359981 7.67533224 0.3779102
81 1 2.17072743 3.83177096 6.66528759
82 1 6.85975825 9.6118426 5.69751692
83 1 7.01400695 5.33810316 -4.04709306
84 1 2.03083833 -1.15827201 1.35956038
85 1 10.68709173 11.2047974 0.60996538
86 1 7.52829653 8.09674281 4.29165234
87 1 7.87452042 7.77540262 5.48003253
88 1 10.38283547 2.13933031 1.78239644
89 1 5.61585425 4.52806794 8.06039598
90 1 2.01583729 1.89260237 13.20591787
91 1 2.65797496 4.11194509 8.26952023
92 1 5.25544698 10.31072939 8.10914292
93 1 9.0494694 6.39425641 -0.94445207
94 1 11.51011077 3.85338365 3.18545145
95 1 10.67302689 10.69302357 5.53877501
96 1 -1.27203578 9.8054354 4.20401358
97 1 10.56444812 4.28898725 5.52755049
98 1 9.47036818 3.10734971 2.24867794
99 1 6.35127638 9.10228155 3.05633067
100 1 5.93886561 2.19463026 2.91197525
101 1 7.87496089 0.13576725 2.21514761
102 1 9.82634384 8.85752113 5.85261121
103 1 5.52024253 3.14927022 0.51647226
104 1 8.14599603 11.50146646 0.16306869
105 1 5.54013814 4.35588896 2.17191266
106 1 12.45301887 8.05314699 4.15232838
107 1 5.18303167 7.28209893 10.38584141
108 1 -0.13634521 7.67102971 2.42249861
109 1 4.43434259 5.06693984 -0.0687896
110 1 1.03353905 7.0542958 11.19768533
111 1 2.72043781 2.92866602 9.89127275
112 1 10.74162845 5.02569088 3.23647668
113 1 7.51578071 5.78000205 2.89208034
114 1 3.4490348 3.32310607 2.83215448
115 1 2.03425398 6.18587548 4.0642894
116 1 7.95655196 4.32858378 8.73328588
117 1 2.79050462 -1.13471703 4.69431968
118 1 -0.79527136 1.59077948 5.39554755
119 1 5.9465098 4.66473529 3.77001582
120 1 -1.14025218 1.74471328 8.66276573
121 1 6.16530734 6.56794338 8.41819485
122 1 7.85466147 9.35772638 7.68344377
123 1 5.74454825 1.47693774 11.41287436
124 1 8.49071951 -0.65408397 6.58731205
125 1 5.11683689 2.60528282 8.81864119
126 1 8.72638995 5.37161926 4.90608215
127 1 -0.90942029 0.06332923 7.22757887
128 1 -1.37374486 6.89567391 0.55599859
129 1 -0.31170209 2.18294236 6.7056466
130 1 9.9966792 8.84011798 1.34074528
131 1 9.43397084 6.80494967 3.64192406
132 1 -1.99582715 2.33443172 10.97827447
133 1 9.5649741 2.84908572 8.95719783
134 1 3.26956024 2.95976132 8.57966085
135 1 0.74604664 4.35370101 10.99055385
136 1 9.19043042 7.78840907 8.86404158
137 1 2.80602399 1.66745604 0.0913908
138 1 9.48260155 6.54212942 1.71064324
139 1 2.61942947 6.286032 2.79818802
140 1 8.65771976 3.78845829 4.63424573
141 1 11.56191232 1.54503868 10.01532908
142 1 3.83931547 1.29590971 7.69747203
143 1 -0.68742341 2.64080665 4.21855746
144 1 2.32265942 11.46569558 5.25972408
145 1 7.92896112 7.94003286 8.08473594
146 1 7.49589393 8.34919027 2.06048904
147 1 6.40981576 2.62861743 -0.41684572
148 1 4.66737402 11.52741197 5.99086173
149 1 3.88642956 6.56216189 8.18780623
150 1 5.49886701 6.70925115 7.24404435
151 1 5.62988063 4.23957224 -0.05297756
152 1 6.30838357 6.23501331 3.92546556
153 1 -0.79240616 3.24175739 0.11099485
154 1 4.24503801 -1.11290413 4.24633036
155 1 4.2773866 1.39315913 11.25645746
156 1 0.62444064 7.71477681 3.55254044
157 1 3.1563789 4.27379974 0.2536787
158 1 15.0775302 6.1122021 0.94897297
159 1 5.91373327 10.0922831 0.26491385
160 1 4.80870672 3.14346551 3.53850309
161 1 5.34213778 2.55687447 6.95119219
162 1 7.48253679 5.98750335 4.9918682
163 1 -0.17014385 7.17665772 -0.86923496
164 1 4.27180681 -3.46688829 3.00397362
165 1 6.14960602 4.3216836 5.33366372
166 1 3.12229333 8.56691974 6.15324149
167 1 8.34358081 7.55367386 3.15733839
168 1 6.45067441 0.83254705 8.23744139
169 1 4.81177857 4.0328647 6.6572519
170 1 8.19883105 9.91462772 -0.31222999
171 1 6.82400157 2.52281835 3.96024165
172 1 0.58247629 3.89896278 9.18532905
173 1 4.2491535 -0.88369586 2.94284959
174 1 5.95231109 5.37391756 8.92523907
175 1 5.3238724 8.44595225 6.65852126
176 1 4.42343145 -0.55659101 0.30852425
177 1 10.88821949 2.91161172 4.68133187
178 1 5.45680053 7.1696778 3.16414377
179 1 4.54535797 1.27945698 -1.38108136
180 1 5.03609352 7.07265046 5.82924855
181 1 1.98358106 9.44325973 8.13675611
182 1 2.14782474 4.22740015 11.49423018
183 1 3.70893209 3.66435205 1.48691336
184 1 6.20081164 6.22857408 5.79125319
185 1 3.36523297 9.55968835 11.92440127
186 1 6.88851508 5.30754432 9.90932557
187 1 5.50531352 10.08541359 2.45427196
188 1 2.73755843 7.40731262 8.40284558
189 1 0.24272641 9.2498766 7.19878394
190 1 9.96989942 5.22603334 1.81967686
191 1 3.94943058 10.74359483 4.7210405
192 1 1.25917723 4.6785313 5.8987568
193 1 5.36463889 5.66204668 1.92287285
194 1 8.1910986 2.5730844 1.98331503
195 1 10.29972371 1.33240731 7.76673044
196 1 2.11146514 10.7812169 -3.75575999
197 1 7.75959323 4.61850887 10.96115222
198 1 3.82598933 4.99245871 8.27800842
199 1 6.63444502 6.98431304 10.73216774
200 1 6.32055486 7.66711053 1.88838956
