# 1500K_graph-pace 

384 atoms
1 atom types

0 11.94891184 xlo xhi
0 17.002576852 ylo yhi
0 14.712174517 zlo zhi

0.00000000 0.00000000 0.00000000 xy xz yz

Masses

1 12.0107

Atoms

1 1 23.89782184 33.986066852 29.424344517
2 1 23.89782184 19.108816852 15.938194517
3 1 14.93613184 17.021666852 29.424344517
4 1 14.93613184 19.146996852 15.938194517
5 1 11.94891184 33.278076852 15.938184517
6 1 11.94891184 18.400816852000002 17.164204516999998
7 1 14.93614184 17.729656852 15.938184517
8 1 14.93614184 19.854976852 17.164204516999998
9 1 17.923381839999998 33.986066852 29.424344517
10 1 17.923381839999998 19.108806852 15.938194517
11 1 20.910601839999998 17.021666852 14.712174517
12 1 20.910601839999998 19.146996852 15.938194517
13 1 17.923371839999998 33.278076852 15.938184517
14 1 17.923371839999998 18.400816852000002 17.164204516999998
15 1 20.91059184 17.729656852 15.938184517
16 1 20.91059184 19.854976852 17.164204516999998
17 1 23.89782184 21.234146852000002 29.424344517
18 1 23.89782184 23.359456852 15.938184517
19 1 14.93613184 21.272316852 14.712174517
20 1 14.93614184 23.397636852 15.938184517
21 1 11.94891184 20.526146852 15.938184517
22 1 11.94891184 22.651466852 17.164204516999998
23 1 14.93614184 21.980296852000002 15.938184517
24 1 14.93614184 24.105616852 17.164204516999998
25 1 17.923371839999998 21.234126852000003 29.424344517
26 1 17.923371839999998 23.359446852 15.938184517
27 1 20.910601839999998 21.272316852 14.712174517
28 1 20.910601839999998 23.397636852 15.938184517
29 1 17.923371839999998 20.526146852 15.938184517
30 1 17.923371839999998 22.651466852 17.164204516999998
31 1 20.91059184 21.980296852000002 15.938184517
32 1 20.91059184 24.105616852 17.164204516999998
33 1 23.89782184 33.986066852 17.164204516999998
34 1 23.89782184 19.108806852 18.390224517
35 1 14.93613184 17.021666852 17.164204516999998
36 1 14.93613184 19.146986852 18.390224517
37 1 11.94891184 33.278076852 18.390214517
38 1 11.94891184 18.400816852000002 19.616234517
39 1 14.93614184 17.729656852 18.390214517
40 1 14.93614184 19.854976852 19.616234517
41 1 17.923371839999998 33.986056852000004 17.164214516999998
42 1 17.92336184 19.108806852 18.390224517
43 1 20.910601839999998 17.021666852 17.164204516999998
44 1 20.910601839999998 19.146986852 18.390224517
45 1 17.923371839999998 33.278076852 18.390214517
46 1 17.923371839999998 18.400816852000002 19.616234517
47 1 20.91059184 17.729656852 18.390214517
48 1 20.91059184 19.854976852 19.616234517
49 1 23.89782184 21.234136852 17.164204516999998
50 1 11.94891184 23.359446852 18.390214517
51 1 14.93613184 21.272316852 17.164204516999998
52 1 14.93614184 23.397636852 18.390214517
53 1 11.94891184 20.526146852 18.390214517
54 1 11.94891184 22.651466852 19.616234517
55 1 14.93614184 21.980296852000002 18.390214517
56 1 14.93614184 24.105616852 19.616234517
57 1 17.92336184 21.234126852000003 17.164204516999998
58 1 17.92336184 23.359456852 18.390214517
59 1 20.910601839999998 21.272316852 17.164204516999998
60 1 20.910601839999998 23.397636852 18.390214517
61 1 17.923371839999998 20.526146852 18.390214517
62 1 17.923371839999998 22.651466852 19.616234517
63 1 20.91059184 21.980296852000002 18.390214517
64 1 20.91059184 24.105616852 19.616234517
65 1 23.89782184 33.986066852 19.616234517
66 1 23.89782184 19.108806852 20.842254517
67 1 14.93614184 17.021666852 19.616234517
68 1 14.93614184 19.146986852 20.842244516999997
69 1 11.94891184 33.278076852 20.842244516999997
70 1 11.94891184 18.400816852000002 22.068264517
71 1 14.93614184 17.729656852 20.842244516999997
72 1 14.93614184 19.854976852 22.068264517
73 1 17.923371839999998 33.986066852 19.616234517
74 1 17.923371839999998 19.108806852 20.842244516999997
75 1 20.91059184 17.021666852 19.616234517
76 1 20.91059184 19.146986852 20.842244516999997
77 1 17.923371839999998 33.278076852 20.842244516999997
78 1 17.923371839999998 18.400816852000002 22.068264517
79 1 20.91059184 17.729656852 20.842244516999997
80 1 20.91059184 19.854976852 22.068264517
81 1 23.89782184 21.234126852000003 19.616234517
82 1 11.94891184 23.359446852 20.842244516999997
83 1 14.93614184 21.272306852 19.616234517
84 1 14.93614184 23.397636852 20.842244516999997
85 1 11.94891184 20.526146852 20.842244516999997
86 1 11.94891184 22.651466852 22.068264517
87 1 14.93614184 21.980296852000002 20.842244516999997
88 1 14.93614184 24.105616852 22.068264517
89 1 17.92336184 21.234126852000003 19.616234517
90 1 17.92336184 23.359446852 20.842244516999997
91 1 20.91059184 21.272316852 19.616234517
92 1 20.910601839999998 23.397636852 20.842244516999997
93 1 17.923371839999998 20.526146852 20.842244516999997
94 1 17.923371839999998 22.651466852 22.068264517
95 1 20.91059184 21.980296852000002 20.842244516999997
96 1 20.91059184 24.105616852 22.068264517
97 1 23.89782184 33.986066852 22.068264517
98 1 23.89782184 19.108806852 23.294274516999998
99 1 14.93614184 17.021666852 22.068264517
100 1 14.93613184 19.146986852 23.294274516999998
101 1 11.94891184 33.278076852 23.294274516999998
102 1 11.94891184 18.400816852000002 24.520294517
103 1 14.93614184 17.729656852 23.294274516999998
104 1 14.93614184 19.854976852 24.520294517
105 1 17.923371839999998 33.986056852000004 22.068264517
106 1 17.923371839999998 19.108806852 23.294274516999998
107 1 20.91059184 17.021666852 22.068264517
108 1 20.91059184 19.146986852 23.294274516999998
109 1 17.923371839999998 33.278076852 23.294274516999998
110 1 17.923371839999998 18.400816852000002 24.520294517
111 1 20.91059184 17.729656852 23.294274516999998
112 1 20.91059184 19.854976852 24.520294517
113 1 23.89782184 21.234126852000003 22.068264517
114 1 11.94891184 23.359446852 23.294274516999998
115 1 14.93613184 21.272306852 22.068264517
116 1 14.93614184 23.397636852 23.294274516999998
117 1 11.94891184 20.526146852 23.294274516999998
118 1 11.94891184 22.651466852 24.520294517
119 1 14.93614184 21.980296852000002 23.294274516999998
120 1 14.93614184 24.105616852 24.520294517
121 1 17.92336184 21.234126852000003 22.068264517
122 1 17.923371839999998 23.359446852 23.294284517
123 1 20.910601839999998 21.272306852 22.068264517
124 1 20.910601839999998 23.397636852 23.294274516999998
125 1 17.923371839999998 20.526146852 23.294274516999998
126 1 17.923371839999998 22.651466852 24.520294517
127 1 20.91059184 21.980296852000002 23.294274516999998
128 1 20.91059184 24.105616852 24.520294517
129 1 23.89782184 33.986066852 24.520284517
130 1 23.89782184 19.108816852 25.746294517
131 1 14.93614184 17.021666852 24.520284517
132 1 14.93613184 19.146986852 25.746304517
133 1 11.94891184 33.278076852 25.746304517
134 1 11.94891184 18.400816852000002 26.972314517
135 1 14.93614184 17.729656852 25.746304517
136 1 14.93614184 19.854976852 26.972324516999997
137 1 17.923371839999998 33.986066852 24.520284517
138 1 17.92336184 19.108806852 25.746304517
139 1 20.91059184 17.021666852 24.520284517
140 1 20.91059184 19.146986852 25.746304517
141 1 17.923371839999998 33.278076852 25.746304517
142 1 17.923371839999998 18.400816852000002 26.972324516999997
143 1 20.91059184 17.729656852 25.746304517
144 1 20.91059184 19.854976852 26.972324516999997
145 1 11.94891184 21.234126852000003 24.520284517
146 1 11.94891184 23.359446852 25.746314517000002
147 1 14.93613184 21.272306852 24.520294517
148 1 14.93614184 23.397636852 25.746314517000002
149 1 11.94891184 20.526146852 25.746304517
150 1 11.94891184 22.651466852 26.972324516999997
151 1 14.93614184 21.980296852000002 25.746304517
152 1 14.93614184 24.105616852 26.972324516999997
153 1 17.92336184 21.234126852000003 24.520294517
154 1 17.92336184 23.359456852 25.746314517000002
155 1 20.91059184 21.272306852 24.520294517
156 1 20.910601839999998 23.397636852 25.746304517
157 1 17.923371839999998 20.526146852 25.746304517
158 1 17.923371839999998 22.651466852 26.972324516999997
159 1 20.91059184 21.980296852000002 25.746304517
160 1 20.91059184 24.105616852 26.972324516999997
161 1 11.94891184 33.986076852 26.972314517
162 1 11.94891184 19.108816852 28.198334517
163 1 14.93613184 17.021666852 26.972314517
164 1 14.93613184 19.146996852 28.198334517
165 1 11.94891184 33.278076852 28.198334517
166 1 11.94891184 18.400816852000002 14.712174517
167 1 14.93614184 17.729656852 28.198334517
168 1 14.93614184 19.854976852 14.712174517
169 1 17.923371839999998 33.986056852000004 26.972314517
170 1 17.923381839999998 19.108806852 28.198334517
171 1 20.910601839999998 17.021666852 26.972314517
172 1 20.910601839999998 19.146986852 28.198334517
173 1 17.923371839999998 33.278076852 28.198334517
174 1 17.923371839999998 18.400816852000002 14.712174517
175 1 20.91059184 17.729656852 28.198334517
176 1 20.91059184 19.854976852 14.712174517
177 1 23.89782184 21.234136852 26.972324516999997
178 1 23.89782184 23.359456852 28.198334517
179 1 14.93613184 21.272316852 26.972324516999997
180 1 14.93613184 23.397636852 28.198334517
181 1 11.94891184 20.526146852 28.198334517
182 1 11.94891184 22.651466852 14.712174517
183 1 14.93614184 21.980296852000002 28.198334517
184 1 14.93614184 24.105616852 14.712174517
185 1 17.92336184 21.234126852000003 26.972324516999997
186 1 17.923371839999998 23.359446852 28.198334517
187 1 20.910601839999998 21.272316852 26.972324516999997
188 1 20.910601839999998 23.397636852 28.198334517
189 1 17.923371839999998 20.526146852 28.198334517
190 1 17.923371839999998 22.651466852 14.712174517
191 1 20.91059184 21.980296852000002 28.198334517
192 1 20.91059184 24.105616852 14.712174517
193 1 23.89782184 25.484776852000003 29.424344517
194 1 23.89782184 27.610096851999998 15.938184517
195 1 14.93614184 25.522956852 14.712174517
196 1 14.93614184 27.648276852000002 15.938184517
197 1 11.94891184 24.776786852 15.938184517
198 1 11.94891184 26.902106852000003 17.164204516999998
199 1 14.93614184 26.230946852000002 15.938184517
200 1 14.93614184 28.356266852 17.164204516999998
201 1 17.923371839999998 25.484776852000003 29.424344517
202 1 17.923371839999998 27.610096851999998 15.938184517
203 1 20.91059184 25.522956852 14.712174517
204 1 20.91059184 27.648276852000002 15.938184517
205 1 17.923371839999998 24.776786852 15.938184517
206 1 17.923371839999998 26.902106852000003 17.164204516999998
207 1 20.91059184 26.230946852000002 15.938184517
208 1 20.91059184 28.356266852 17.164204516999998
209 1 23.89782184 29.735406852 29.424344517
210 1 23.89782184 31.860736852000002 15.938194517
211 1 14.936161839999999 29.773596852 29.424344517
212 1 14.936151839999999 31.898916852 15.938184517
213 1 11.94891184 29.027436852 15.938184517
214 1 11.94891184 31.152756852000003 17.164204516999998
215 1 14.93614184 30.481586852 15.938184517
216 1 14.93614184 32.606906852 17.164204516999998
217 1 17.92336184 29.735416852 29.424344517
218 1 17.92336184 31.860736852000002 15.938194517
219 1 20.91058184 29.773596852 14.712174517
220 1 20.91058184 31.898916852 15.938194517
221 1 17.923371839999998 29.027436852 15.938184517
222 1 17.923371839999998 31.152756852000003 17.164204516999998
223 1 20.91059184 30.481586852 15.938184517
224 1 20.91059184 32.606906852 17.164204516999998
225 1 11.94891184 25.484776852000003 17.164194517
226 1 11.94891184 27.610096851999998 18.390214517
227 1 14.93614184 25.522956852 17.164204516999998
228 1 14.93614184 27.648276852000002 18.390214517
229 1 11.94891184 24.776786852 18.390214517
230 1 11.94891184 26.902106852000003 19.616234517
231 1 14.93614184 26.230946852000002 18.390214517
232 1 14.93614184 28.356266852 19.616234517
233 1 17.923371839999998 25.484776852000003 17.164204516999998
234 1 17.923371839999998 27.610096851999998 18.390214517
235 1 20.91059184 25.522956852 17.164204516999998
236 1 20.910601839999998 27.648276852000002 18.390214517
237 1 17.923371839999998 24.776786852 18.390214517
238 1 17.923371839999998 26.902106852000003 19.616234517
239 1 20.91059184 26.230946852000002 18.390214517
240 1 20.91059184 28.356266852 19.616234517
241 1 23.89782184 29.735416852 17.164204516999998
242 1 23.89782184 31.860736852000002 18.390224517
243 1 14.93614184 29.773596852 17.164204516999998
244 1 14.93614184 31.898926852000002 18.390224517
245 1 11.94891184 29.027436852 18.390214517
246 1 11.94891184 31.152756852000003 19.616234517
247 1 14.93614184 30.481586852 18.390214517
248 1 14.93614184 32.606906852 19.616234517
249 1 17.923371839999998 29.735416852 17.164204516999998
250 1 17.923371839999998 31.860736852000002 18.390224517
251 1 20.91059184 29.773596852 17.164204516999998
252 1 20.91059184 31.898926852000002 18.390224517
253 1 17.923371839999998 29.027436852 18.390214517
254 1 17.923371839999998 31.152756852000003 19.616234517
255 1 20.91059184 30.481586852 18.390214517
256 1 20.91059184 32.606906852 19.616234517
257 1 11.94891184 25.484776852000003 19.616224517
258 1 11.94891184 27.610096851999998 20.842244516999997
259 1 14.93614184 25.522956852 19.616234517
260 1 14.93614184 27.648276852000002 20.842244516999997
261 1 11.94891184 24.776786852 20.842244516999997
262 1 11.94891184 26.902106852000003 22.068264517
263 1 14.93614184 26.230946852000002 20.842244516999997
264 1 14.93614184 28.356266852 22.068264517
265 1 17.92336184 25.484776852000003 19.616234517
266 1 17.92336184 27.610096851999998 20.842244516999997
267 1 20.910601839999998 25.522956852 19.616234517
268 1 20.910601839999998 27.648276852000002 20.842244516999997
269 1 17.923371839999998 24.776786852 20.842244516999997
270 1 17.923371839999998 26.902106852000003 22.068264517
271 1 20.91059184 26.230946852000002 20.842244516999997
272 1 20.91059184 28.356266852 22.068264517
273 1 23.89782184 29.735426852 19.616234517
274 1 23.89782184 31.860746852 20.842254517
275 1 14.93614184 29.773596852 19.616234517
276 1 14.93614184 31.898926852000002 20.842244516999997
277 1 11.94891184 29.027436852 20.842244516999997
278 1 11.94891184 31.152756852000003 22.068264517
279 1 14.93614184 30.481586852 20.842244516999997
280 1 14.93614184 32.606906852 22.068264517
281 1 17.92336184 29.735416852 19.616234517
282 1 17.923371839999998 31.860746852 20.842244516999997
283 1 20.910601839999998 29.773596852 19.616234517
284 1 20.91059184 31.898926852000002 20.842254517
285 1 17.923371839999998 29.027436852 20.842244516999997
286 1 17.923371839999998 31.152756852000003 22.068264517
287 1 20.91059184 30.481586852 20.842244516999997
288 1 20.91059184 32.606906852 22.068264517
289 1 11.94891184 25.484776852000003 22.068264517
290 1 23.89782184 27.610096851999998 23.294274516999998
291 1 14.93613184 25.522956852 22.068264517
292 1 14.93613184 27.648276852000002 23.294274516999998
293 1 11.94891184 24.776786852 23.294274516999998
294 1 11.94891184 26.902106852000003 24.520294517
295 1 14.93614184 26.230946852000002 23.294274516999998
296 1 14.93614184 28.356266852 24.520294517
297 1 17.923371839999998 25.484766852 22.068264517
298 1 17.923371839999998 27.610096851999998 23.294274516999998
299 1 20.910601839999998 25.522956852 22.068264517
300 1 20.910601839999998 27.648276852000002 23.294274516999998
301 1 17.923371839999998 24.776786852 23.294274516999998
302 1 17.923371839999998 26.902106852000003 24.520294517
303 1 20.91059184 26.230946852000002 23.294274516999998
304 1 20.91059184 28.356266852 24.520294517
305 1 23.89782184 29.735426852 22.068264517
306 1 23.89782184 31.860746852 23.294274516999998
307 1 14.93614184 29.773606852 22.068264517
308 1 14.93614184 31.898926852000002 23.294274516999998
309 1 11.94891184 29.027436852 23.294274516999998
310 1 11.94891184 31.152756852000003 24.520294517
311 1 14.93614184 30.481586852 23.294274516999998
312 1 14.93614184 32.606906852 24.520294517
313 1 17.92336184 29.735426852 22.068264517
314 1 17.923371839999998 31.860746852 23.294274516999998
315 1 20.91059184 29.773606852 22.068264517
316 1 20.91059184 31.898926852000002 23.294274516999998
317 1 17.923371839999998 29.027436852 23.294274516999998
318 1 17.923371839999998 31.152756852000003 24.520294517
319 1 20.91059184 30.481586852 23.294274516999998
320 1 20.91059184 32.606906852 24.520294517
321 1 11.94891184 25.484776852000003 24.520294517
322 1 23.89782184 27.610096851999998 25.746314517000002
323 1 14.93614184 25.522956852 24.520294517
324 1 14.93614184 27.648276852000002 25.746304517
325 1 11.94891184 24.776786852 25.746304517
326 1 11.94891184 26.902106852000003 26.972324516999997
327 1 14.93614184 26.230946852000002 25.746304517
328 1 14.93614184 28.356266852 26.972324516999997
329 1 17.923371839999998 25.484776852000003 24.520294517
330 1 17.923371839999998 27.610096851999998 25.746304517
331 1 20.910601839999998 25.522956852 24.520294517
332 1 20.91059184 27.648276852000002 25.746314517000002
333 1 17.923371839999998 24.776786852 25.746304517
334 1 17.923371839999998 26.902106852000003 26.972324516999997
335 1 20.91059184 26.230946852000002 25.746304517
336 1 20.91059184 28.356266852 26.972324516999997
337 1 23.89782184 29.735426852 24.520294517
338 1 11.94891184 31.860746852 25.746294517
339 1 14.93613184 29.773606852 24.520294517
340 1 14.93614184 31.898916852 25.746304517
341 1 11.94891184 29.027436852 25.746304517
342 1 11.94891184 31.152756852000003 26.972324516999997
343 1 14.93614184 30.481586852 25.746304517
344 1 14.93614184 32.606906852 26.972324516999997
345 1 17.923371839999998 29.735416852 24.520294517
346 1 17.923371839999998 31.860736852000002 25.746304517
347 1 20.910601839999998 29.773606852 24.520294517
348 1 20.910601839999998 31.898926852000002 25.746304517
349 1 17.923371839999998 29.027436852 25.746304517
350 1 17.923371839999998 31.152756852000003 26.972324516999997
351 1 20.91059184 30.481586852 25.746304517
352 1 20.91059184 32.606906852 26.972324516999997
353 1 23.89782184 25.484776852000003 26.972324516999997
354 1 23.89782184 27.610096851999998 28.198334517
355 1 14.93613184 25.522956852 26.972324516999997
356 1 14.936151839999999 27.648276852000002 28.198334517
357 1 11.94891184 24.776786852 28.198334517
358 1 11.94891184 26.902106852000003 14.712174517
359 1 14.93614184 26.230946852000002 28.198334517
360 1 14.93614184 28.356266852 14.712174517
361 1 17.923371839999998 25.484776852000003 26.972324516999997
362 1 17.92336184 27.610096851999998 28.198334517
363 1 20.910601839999998 25.522956852 26.972324516999997
364 1 20.91058184 27.648276852000002 28.198334517
365 1 17.923371839999998 24.776786852 28.198334517
366 1 17.923371839999998 26.902106852000003 14.712174517
367 1 20.91059184 26.230946852000002 28.198334517
368 1 20.91059184 28.356266852 14.712174517
369 1 11.94891184 29.735416852 26.972324516999997
370 1 11.94891184 31.860736852000002 28.198334517
371 1 14.936151839999999 29.773596852 26.972324516999997
372 1 14.936151839999999 31.898916852 28.198334517
373 1 11.94891184 29.027436852 28.198334517
374 1 11.94891184 31.152756852000003 14.712174517
375 1 14.93614184 30.481586852 28.198334517
376 1 14.93614184 32.606906852 14.712174517
377 1 17.92336184 29.735416852 26.972324516999997
378 1 17.92336184 31.860736852000002 28.198334517
379 1 20.91059184 29.773596852 26.972324516999997
380 1 20.91059184 31.898916852 28.198334517
381 1 17.923371839999998 29.027436852 28.198334517
382 1 17.923371839999998 31.152756852000003 14.712174517
383 1 20.91059184 30.481586852 28.198334517
384 1 20.91059184 32.606906852 14.712174517
