# CASE-4_INDEP_0-pace 

64 atoms
1 atom types

0 8.609793386 xlo xhi
0 8.609793386 ylo yhi
0 8.609793386 zlo zhi

0.00000000 0.00000000 0.00000000 xy xz yz

Masses

1 12.0107

Atoms

1 1 0.01598 8.38715 0.03972
2 1 6.31313 6.33553 0.07488
3 1 8.47420 6.55403 6.53527
4 1 6.58755 0.16645 6.56615
5 1 0.89456 1.18972 1.20094
6 1 7.55023 7.44477 1.25038
7 1 0.98451 7.39934 7.47743
8 1 8.00307 0.92519 7.66675
9 1 0.14685 0.05268 4.37808
10 1 6.19666 6.69221 4.23870
11 1 8.58239 6.50640 2.36922
12 1 6.34176 8.60887 2.26317
13 1 1.06499 1.29892 5.46102
14 1 7.52854 7.57167 5.22208
15 1 1.16052 7.52811 3.36677
16 1 7.67445 0.98779 3.32418
17 1 8.56096 4.47912 0.04217
18 1 6.84620 1.98547 8.58973
19 1 8.40939 2.29091 6.53532
20 1 6.54029 4.54341 6.12720
21 1 1.07870 5.66509 1.38931
22 1 7.36004 3.41699 1.10505
23 1 1.18973 3.25413 7.69038
24 1 7.36175 5.27291 7.37955
25 1 8.40190 4.44039 4.08070
26 1 6.51126 1.95686 4.46612
27 1 8.35053 2.12425 2.22723
28 1 6.43988 4.46982 2.21314
29 1 0.93428 5.47013 5.26830
30 1 7.62570 3.12717 5.37536
31 1 1.12784 3.01433 3.16330
32 1 7.44678 5.55478 3.24607
33 1 4.26952 8.55462 8.55215
34 1 2.08712 6.34145 8.13633
35 1 4.68671 6.63134 6.44611
36 1 2.22112 8.56703 6.39231
37 1 5.75716 0.81333 0.85578
38 1 2.85374 7.74826 0.76937
39 1 5.52170 7.76909 7.68641
40 1 3.15320 0.95763 7.64180
41 1 4.26259 0.04006 4.22924
42 1 2.18195 6.35820 4.29806
43 1 3.92338 6.10170 1.90815
44 1 1.90699 8.57706 2.09254
45 1 5.24023 1.09139 5.52290
46 1 3.40084 7.41866 5.42361
47 1 5.17333 7.53916 3.18437
48 1 3.24184 1.04494 3.36159
49 1 4.53978 4.25933 8.46129
50 1 2.21500 2.09767 0.13837
51 1 4.04260 2.03147 6.55345
52 1 2.32242 4.63299 6.40943
53 1 5.26526 5.29172 1.02166
54 1 3.42898 3.05827 1.14374
55 1 5.73601 3.29888 7.28881
56 1 3.45294 5.47963 7.13929
57 1 4.45418 4.20061 4.33618
58 1 2.13296 2.27748 4.57880
59 1 4.30240 2.08712 2.36702
60 1 2.14615 3.93258 2.09623
61 1 5.44923 5.53307 5.18107
62 1 3.15853 3.29306 5.52456
63 1 5.54755 3.24641 3.29754
64 1 2.95295 5.13437 3.14157
