# CASE-2_INDEP_0-pace 

64 atoms
1 atom types

0 13.667195078 xlo xhi
0 13.667195078 ylo yhi
0 13.667195078 zlo zhi

0.00000000 0.00000000 0.00000000 xy xz yz

Masses

1 12.0107

Atoms

1 1 0.02536 13.31377 0.06306
2 1 10.02147 10.05703 0.11886
3 1 13.45195 10.40387 10.37409
4 1 10.45708 0.26422 10.42312
5 1 1.42002 1.88856 1.90637
6 1 11.98524 11.81784 1.98486
7 1 1.56282 11.74572 11.86968
8 1 12.70408 1.46864 12.17021
9 1 0.23311 0.08363 6.94976
10 1 9.83659 10.62323 6.72852
11 1 13.62370 10.32827 3.76090
12 1 10.06691 13.66574 3.59256
13 1 1.69056 2.06190 8.66882
14 1 11.95081 12.01928 8.28954
15 1 1.84222 11.95012 5.34442
16 1 12.18243 1.56802 5.27681
17 1 13.58967 7.11017 0.06695
18 1 10.86766 3.15174 13.63535
19 1 13.34907 3.63660 10.37418
20 1 10.38206 7.21222 9.72632
21 1 1.71233 8.99277 2.20539
22 1 11.68334 5.42413 1.75416
23 1 1.88858 5.16560 12.20772
24 1 11.68605 8.37022 11.71430
25 1 13.33718 7.04867 6.47771
26 1 10.33598 3.10632 7.08953
27 1 13.25563 3.37203 3.53550
28 1 10.22267 7.09540 3.51314
29 1 1.48307 8.68330 8.36290
30 1 12.10505 4.96407 8.53285
31 1 1.79034 4.78495 5.02142
32 1 11.82103 8.81766 5.15282
33 1 6.77744 13.57962 13.57570
34 1 3.31310 10.06643 12.91562
35 1 7.43969 10.52659 10.23257
36 1 3.52581 13.59931 10.14715
37 1 9.13892 1.29108 1.35847
38 1 4.53004 12.29959 1.22129
39 1 8.76515 12.33265 12.20141
40 1 5.00539 1.52015 12.13059
41 1 6.76644 0.06360 6.71350
42 1 3.46363 10.09302 6.82274
43 1 6.22798 9.68584 3.02900
44 1 3.02716 13.61524 3.32170
45 1 8.31835 1.73248 8.76705
46 1 5.39850 11.77639 8.60944
47 1 8.21215 11.96768 5.05488
48 1 5.14611 1.65874 5.33619
49 1 7.20645 6.76127 13.43146
50 1 3.51609 3.32984 0.21965
51 1 6.41722 3.22475 10.40295
52 1 3.68661 7.35442 10.17433
53 1 8.35808 8.40008 1.62178
54 1 5.44316 4.85470 1.81558
55 1 9.10534 5.23665 11.57027
56 1 5.48121 8.69836 11.33292
57 1 7.07057 6.66805 6.88325
58 1 3.38586 3.61528 7.26839
59 1 6.82963 3.31310 3.75741
60 1 3.40680 6.24258 3.32756
61 1 8.65011 8.78321 8.22444
62 1 5.01386 5.22741 8.76970
63 1 8.80618 5.15335 5.23451
64 1 4.68752 8.15030 4.98693
