# CASE-6_INDEP_0-pace 

512 atoms
1 atom types

0 15.042694614 xlo xhi
0 15.042694614 ylo yhi
0 15.042694614 zlo zhi

0.00000000 0.00000000 0.00000000 xy xz yz

Masses

1 12.0107

Atoms

1 1 7.53531 14.84820 7.55605
2 1 13.03638 13.05595 7.58676
3 1 14.92424 13.24682 13.23043
4 1 13.27611 7.66675 13.25741
5 1 8.30282 8.56066 8.57047
6 1 14.11708 14.02496 8.61366
7 1 8.38140 13.98527 14.05348
8 1 14.51268 8.32957 14.21887
9 1 7.64964 7.56737 11.34595
10 1 12.93463 13.36754 11.22420
11 1 15.01876 13.20521 9.59105
12 1 13.06139 15.04189 9.49841
13 1 8.45170 8.65606 12.29199
14 1 14.09813 14.13582 12.08326
15 1 8.53516 14.09776 10.46250
16 1 14.22560 8.38426 10.42529
17 1 15.00003 11.43423 7.55819
18 1 13.50205 9.25582 15.02517
19 1 14.86763 9.52265 13.23048
20 1 13.23482 11.49039 12.87395
21 1 8.46368 12.47026 8.73502
22 1 13.95094 10.50636 8.48670
23 1 8.56067 10.36409 14.23952
24 1 13.95243 12.12766 13.96798
25 1 14.86108 11.40038 11.08617
26 1 13.20946 9.23083 11.42287
27 1 14.81621 9.37705 9.46701
28 1 13.14710 11.42610 9.45471
29 1 8.33752 12.29995 12.12363
30 1 14.18302 10.25318 12.21716
31 1 8.50661 10.15461 10.28475
32 1 14.02671 12.37390 10.35705
33 1 11.25112 14.99450 14.99234
34 1 9.34462 13.06112 14.62909
35 1 11.61557 13.31436 13.15255
36 1 9.46168 15.00534 13.10554
37 1 12.55069 8.23186 8.26895
38 1 10.01433 14.29008 8.19345
39 1 12.34500 14.30827 14.23605
40 1 10.27592 8.35792 14.19707
41 1 11.24507 7.55635 11.21593
42 1 9.42746 13.07575 11.27605
43 1 10.94874 12.85167 9.18827
44 1 9.18726 15.01411 9.34935
45 1 12.09912 8.47477 12.34604
46 1 10.49226 14.00215 12.25931
47 1 12.04067 14.10742 10.30316
48 1 10.35336 8.43419 10.45797
49 1 11.48721 11.24222 14.91297
50 1 9.45633 9.35383 7.64223
51 1 11.05288 9.29600 13.24632
52 1 9.55017 11.56864 13.12050
53 1 12.12098 12.14409 8.41385
54 1 10.51684 10.19299 8.52050
55 1 12.53221 10.40319 13.88871
56 1 10.53778 12.30824 13.75810
57 1 11.41244 11.19092 11.30935
58 1 9.38466 9.51092 11.52130
59 1 11.27984 9.34462 9.58913
60 1 9.39619 10.95678 9.35258
61 1 12.28169 12.35494 12.04743
62 1 10.28058 10.39811 12.34750
63 1 12.36758 10.35735 10.40201
64 1 10.10099 12.00663 10.26576
65 1 7.53531 14.84820 0.03470
66 1 13.03638 13.05595 0.06541
67 1 14.92424 13.24682 5.70908
68 1 13.27611 7.66675 5.73606
69 1 8.30282 8.56066 1.04912
70 1 14.11708 14.02496 1.09231
71 1 8.38140 13.98527 6.53213
72 1 14.51268 8.32957 6.69752
73 1 7.64964 7.56737 3.82460
74 1 12.93463 13.36754 3.70285
75 1 15.01876 13.20521 2.06970
76 1 13.06139 15.04189 1.97706
77 1 8.45170 8.65606 4.77064
78 1 14.09813 14.13582 4.56191
79 1 8.53516 14.09776 2.94115
80 1 14.22560 8.38426 2.90394
81 1 15.00003 11.43423 0.03684
82 1 13.50205 9.25582 7.50382
83 1 14.86763 9.52265 5.70913
84 1 13.23482 11.49039 5.35260
85 1 8.46368 12.47026 1.21367
86 1 13.95094 10.50636 0.96535
87 1 8.56067 10.36409 6.71817
88 1 13.95243 12.12766 6.44663
89 1 14.86108 11.40038 3.56482
90 1 13.20946 9.23083 3.90152
91 1 14.81621 9.37705 1.94566
92 1 13.14710 11.42610 1.93336
93 1 8.33752 12.29995 4.60228
94 1 14.18302 10.25318 4.69581
95 1 8.50661 10.15461 2.76340
96 1 14.02671 12.37390 2.83570
97 1 11.25112 14.99450 7.47099
98 1 9.34462 13.06112 7.10774
99 1 11.61557 13.31436 5.63120
100 1 9.46168 15.00534 5.58419
101 1 12.55069 8.23186 0.74760
102 1 10.01433 14.29008 0.67210
103 1 12.34500 14.30827 6.71470
104 1 10.27592 8.35792 6.67572
105 1 11.24507 7.55635 3.69458
106 1 9.42746 13.07575 3.75470
107 1 10.94874 12.85167 1.66692
108 1 9.18726 15.01411 1.82800
109 1 12.09912 8.47477 4.82469
110 1 10.49226 14.00215 4.73796
111 1 12.04067 14.10742 2.78181
112 1 10.35336 8.43419 2.93662
113 1 11.48721 11.24222 7.39162
114 1 9.45633 9.35383 0.12088
115 1 11.05288 9.29600 5.72497
116 1 9.55017 11.56864 5.59915
117 1 12.12098 12.14409 0.89250
118 1 10.51684 10.19299 0.99915
119 1 12.53221 10.40319 6.36736
120 1 10.53778 12.30824 6.23675
121 1 11.41244 11.19092 3.78800
122 1 9.38466 9.51092 3.99995
123 1 11.27984 9.34462 2.06778
124 1 9.39619 10.95678 1.83123
125 1 12.28169 12.35494 4.52608
126 1 10.28058 10.39811 4.82615
127 1 12.36758 10.35735 2.88066
128 1 10.10099 12.00663 2.74441
129 1 7.53531 7.32685 7.55605
130 1 13.03638 5.53460 7.58676
131 1 14.92424 5.72547 13.23043
132 1 13.27611 0.14540 13.25741
133 1 8.30282 1.03931 8.57047
134 1 14.11708 6.50361 8.61366
135 1 8.38140 6.46392 14.05348
136 1 14.51268 0.80822 14.21887
137 1 7.64964 0.04602 11.34595
138 1 12.93463 5.84619 11.22420
139 1 15.01876 5.68386 9.59105
140 1 13.06139 7.52054 9.49841
141 1 8.45170 1.13471 12.29199
142 1 14.09813 6.61447 12.08326
143 1 8.53516 6.57641 10.46250
144 1 14.22560 0.86291 10.42529
145 1 15.00003 3.91288 7.55819
146 1 13.50205 1.73447 15.02517
147 1 14.86763 2.00130 13.23048
148 1 13.23482 3.96904 12.87395
149 1 8.46368 4.94891 8.73502
150 1 13.95094 2.98501 8.48670
151 1 8.56067 2.84274 14.23952
152 1 13.95243 4.60631 13.96798
153 1 14.86108 3.87903 11.08617
154 1 13.20946 1.70948 11.42287
155 1 14.81621 1.85570 9.46701
156 1 13.14710 3.90475 9.45471
157 1 8.33752 4.77860 12.12363
158 1 14.18302 2.73183 12.21716
159 1 8.50661 2.63326 10.28475
160 1 14.02671 4.85255 10.35705
161 1 11.25112 7.47315 14.99234
162 1 9.34462 5.53977 14.62909
163 1 11.61557 5.79301 13.15255
164 1 9.46168 7.48399 13.10554
165 1 12.55069 0.71051 8.26895
166 1 10.01433 6.76873 8.19345
167 1 12.34500 6.78692 14.23605
168 1 10.27592 0.83657 14.19707
169 1 11.24507 0.03500 11.21593
170 1 9.42746 5.55440 11.27605
171 1 10.94874 5.33032 9.18827
172 1 9.18726 7.49276 9.34935
173 1 12.09912 0.95342 12.34604
174 1 10.49226 6.48080 12.25931
175 1 12.04067 6.58607 10.30316
176 1 10.35336 0.91284 10.45797
177 1 11.48721 3.72087 14.91297
178 1 9.45633 1.83248 7.64223
179 1 11.05288 1.77465 13.24632
180 1 9.55017 4.04729 13.12050
181 1 12.12098 4.62274 8.41385
182 1 10.51684 2.67164 8.52050
183 1 12.53221 2.88184 13.88871
184 1 10.53778 4.78689 13.75810
185 1 11.41244 3.66957 11.30935
186 1 9.38466 1.98957 11.52130
187 1 11.27984 1.82327 9.58913
188 1 9.39619 3.43543 9.35258
189 1 12.28169 4.83359 12.04743
190 1 10.28058 2.87676 12.34750
191 1 12.36758 2.83600 10.40201
192 1 10.10099 4.48528 10.26576
193 1 7.53531 7.32685 0.03470
194 1 13.03638 5.53460 0.06541
195 1 14.92424 5.72547 5.70908
196 1 13.27611 0.14540 5.73606
197 1 8.30282 1.03931 1.04912
198 1 14.11708 6.50361 1.09231
199 1 8.38140 6.46392 6.53213
200 1 14.51268 0.80822 6.69752
201 1 7.64964 0.04602 3.82460
202 1 12.93463 5.84619 3.70285
203 1 15.01876 5.68386 2.06970
204 1 13.06139 7.52054 1.97706
205 1 8.45170 1.13471 4.77064
206 1 14.09813 6.61447 4.56191
207 1 8.53516 6.57641 2.94115
208 1 14.22560 0.86291 2.90394
209 1 15.00003 3.91288 0.03684
210 1 13.50205 1.73447 7.50382
211 1 14.86763 2.00130 5.70913
212 1 13.23482 3.96904 5.35260
213 1 8.46368 4.94891 1.21367
214 1 13.95094 2.98501 0.96535
215 1 8.56067 2.84274 6.71817
216 1 13.95243 4.60631 6.44663
217 1 14.86108 3.87903 3.56482
218 1 13.20946 1.70948 3.90152
219 1 14.81621 1.85570 1.94566
220 1 13.14710 3.90475 1.93336
221 1 8.33752 4.77860 4.60228
222 1 14.18302 2.73183 4.69581
223 1 8.50661 2.63326 2.76340
224 1 14.02671 4.85255 2.83570
225 1 11.25112 7.47315 7.47099
226 1 9.34462 5.53977 7.10774
227 1 11.61557 5.79301 5.63120
228 1 9.46168 7.48399 5.58419
229 1 12.55069 0.71051 0.74760
230 1 10.01433 6.76873 0.67210
231 1 12.34500 6.78692 6.71470
232 1 10.27592 0.83657 6.67572
233 1 11.24507 0.03500 3.69458
234 1 9.42746 5.55440 3.75470
235 1 10.94874 5.33032 1.66692
236 1 9.18726 7.49276 1.82800
237 1 12.09912 0.95342 4.82469
238 1 10.49226 6.48080 4.73796
239 1 12.04067 6.58607 2.78181
240 1 10.35336 0.91284 2.93662
241 1 11.48721 3.72087 7.39162
242 1 9.45633 1.83248 0.12088
243 1 11.05288 1.77465 5.72497
244 1 9.55017 4.04729 5.59915
245 1 12.12098 4.62274 0.89250
246 1 10.51684 2.67164 0.99915
247 1 12.53221 2.88184 6.36736
248 1 10.53778 4.78689 6.23675
249 1 11.41244 3.66957 3.78800
250 1 9.38466 1.98957 3.99995
251 1 11.27984 1.82327 2.06778
252 1 9.39619 3.43543 1.83123
253 1 12.28169 4.83359 4.52608
254 1 10.28058 2.87676 4.82615
255 1 12.36758 2.83600 2.88066
256 1 10.10099 4.48528 2.74441
257 1 0.01396 14.84820 7.55605
258 1 5.51503 13.05595 7.58676
259 1 7.40289 13.24682 13.23043
260 1 5.75476 7.66675 13.25741
261 1 0.78147 8.56066 8.57047
262 1 6.59573 14.02496 8.61366
263 1 0.86005 13.98527 14.05348
264 1 6.99133 8.32957 14.21887
265 1 0.12829 7.56737 11.34595
266 1 5.41328 13.36754 11.22420
267 1 7.49741 13.20521 9.59105
268 1 5.54004 15.04189 9.49841
269 1 0.93035 8.65606 12.29199
270 1 6.57678 14.13582 12.08326
271 1 1.01381 14.09776 10.46250
272 1 6.70425 8.38426 10.42529
273 1 7.47868 11.43423 7.55819
274 1 5.98070 9.25582 15.02517
275 1 7.34628 9.52265 13.23048
276 1 5.71347 11.49039 12.87395
277 1 0.94233 12.47026 8.73502
278 1 6.42959 10.50636 8.48670
279 1 1.03932 10.36409 14.23952
280 1 6.43108 12.12766 13.96798
281 1 7.33973 11.40038 11.08617
282 1 5.68811 9.23083 11.42287
283 1 7.29486 9.37705 9.46701
284 1 5.62575 11.42610 9.45471
285 1 0.81617 12.29995 12.12363
286 1 6.66167 10.25318 12.21716
287 1 0.98526 10.15461 10.28475
288 1 6.50536 12.37390 10.35705
289 1 3.72977 14.99450 14.99234
290 1 1.82327 13.06112 14.62909
291 1 4.09422 13.31436 13.15255
292 1 1.94033 15.00534 13.10554
293 1 5.02934 8.23186 8.26895
294 1 2.49298 14.29008 8.19345
295 1 4.82365 14.30827 14.23605
296 1 2.75457 8.35792 14.19707
297 1 3.72372 7.55635 11.21593
298 1 1.90611 13.07575 11.27605
299 1 3.42739 12.85167 9.18827
300 1 1.66591 15.01411 9.34935
301 1 4.57777 8.47477 12.34604
302 1 2.97091 14.00215 12.25931
303 1 4.51932 14.10742 10.30316
304 1 2.83201 8.43419 10.45797
305 1 3.96586 11.24222 14.91297
306 1 1.93498 9.35383 7.64223
307 1 3.53153 9.29600 13.24632
308 1 2.02882 11.56864 13.12050
309 1 4.59963 12.14409 8.41385
310 1 2.99549 10.19299 8.52050
311 1 5.01086 10.40319 13.88871
312 1 3.01643 12.30824 13.75810
313 1 3.89109 11.19092 11.30935
314 1 1.86331 9.51092 11.52130
315 1 3.75849 9.34462 9.58913
316 1 1.87484 10.95678 9.35258
317 1 4.76034 12.35494 12.04743
318 1 2.75923 10.39811 12.34750
319 1 4.84623 10.35735 10.40201
320 1 2.57964 12.00663 10.26576
321 1 0.01396 14.84820 0.03470
322 1 5.51503 13.05595 0.06541
323 1 7.40289 13.24682 5.70908
324 1 5.75476 7.66675 5.73606
325 1 0.78147 8.56066 1.04912
326 1 6.59573 14.02496 1.09231
327 1 0.86005 13.98527 6.53213
328 1 6.99133 8.32957 6.69752
329 1 0.12829 7.56737 3.82460
330 1 5.41328 13.36754 3.70285
331 1 7.49741 13.20521 2.06970
332 1 5.54004 15.04189 1.97706
333 1 0.93035 8.65606 4.77064
334 1 6.57678 14.13582 4.56191
335 1 1.01381 14.09776 2.94115
336 1 6.70425 8.38426 2.90394
337 1 7.47868 11.43423 0.03684
338 1 5.98070 9.25582 7.50382
339 1 7.34628 9.52265 5.70913
340 1 5.71347 11.49039 5.35260
341 1 0.94233 12.47026 1.21367
342 1 6.42959 10.50636 0.96535
343 1 1.03932 10.36409 6.71817
344 1 6.43108 12.12766 6.44663
345 1 7.33973 11.40038 3.56482
346 1 5.68811 9.23083 3.90152
347 1 7.29486 9.37705 1.94566
348 1 5.62575 11.42610 1.93336
349 1 0.81617 12.29995 4.60228
350 1 6.66167 10.25318 4.69581
351 1 0.98526 10.15461 2.76340
352 1 6.50536 12.37390 2.83570
353 1 3.72977 14.99450 7.47099
354 1 1.82327 13.06112 7.10774
355 1 4.09422 13.31436 5.63120
356 1 1.94033 15.00534 5.58419
357 1 5.02934 8.23186 0.74760
358 1 2.49298 14.29008 0.67210
359 1 4.82365 14.30827 6.71470
360 1 2.75457 8.35792 6.67572
361 1 3.72372 7.55635 3.69458
362 1 1.90611 13.07575 3.75470
363 1 3.42739 12.85167 1.66692
364 1 1.66591 15.01411 1.82800
365 1 4.57777 8.47477 4.82469
366 1 2.97091 14.00215 4.73796
367 1 4.51932 14.10742 2.78181
368 1 2.83201 8.43419 2.93662
369 1 3.96586 11.24222 7.39162
370 1 1.93498 9.35383 0.12088
371 1 3.53153 9.29600 5.72497
372 1 2.02882 11.56864 5.59915
373 1 4.59963 12.14409 0.89250
374 1 2.99549 10.19299 0.99915
375 1 5.01086 10.40319 6.36736
376 1 3.01643 12.30824 6.23675
377 1 3.89109 11.19092 3.78800
378 1 1.86331 9.51092 3.99995
379 1 3.75849 9.34462 2.06778
380 1 1.87484 10.95678 1.83123
381 1 4.76034 12.35494 4.52608
382 1 2.75923 10.39811 4.82615
383 1 4.84623 10.35735 2.88066
384 1 2.57964 12.00663 2.74441
385 1 0.01396 7.32685 7.55605
386 1 5.51503 5.53460 7.58676
387 1 7.40289 5.72547 13.23043
388 1 5.75476 0.14540 13.25741
389 1 0.78147 1.03931 8.57047
390 1 6.59573 6.50361 8.61366
391 1 0.86005 6.46392 14.05348
392 1 6.99133 0.80822 14.21887
393 1 0.12829 0.04602 11.34595
394 1 5.41328 5.84619 11.22420
395 1 7.49741 5.68386 9.59105
396 1 5.54004 7.52054 9.49841
397 1 0.93035 1.13471 12.29199
398 1 6.57678 6.61447 12.08326
399 1 1.01381 6.57641 10.46250
400 1 6.70425 0.86291 10.42529
401 1 7.47868 3.91288 7.55819
402 1 5.98070 1.73447 15.02517
403 1 7.34628 2.00130 13.23048
404 1 5.71347 3.96904 12.87395
405 1 0.94233 4.94891 8.73502
406 1 6.42959 2.98501 8.48670
407 1 1.03932 2.84274 14.23952
408 1 6.43108 4.60631 13.96798
409 1 7.33973 3.87903 11.08617
410 1 5.68811 1.70948 11.42287
411 1 7.29486 1.85570 9.46701
412 1 5.62575 3.90475 9.45471
413 1 0.81617 4.77860 12.12363
414 1 6.66167 2.73183 12.21716
415 1 0.98526 2.63326 10.28475
416 1 6.50536 4.85255 10.35705
417 1 3.72977 7.47315 14.99234
418 1 1.82327 5.53977 14.62909
419 1 4.09422 5.79301 13.15255
420 1 1.94033 7.48399 13.10554
421 1 5.02934 0.71051 8.26895
422 1 2.49298 6.76873 8.19345
423 1 4.82365 6.78692 14.23605
424 1 2.75457 0.83657 14.19707
425 1 3.72372 0.03500 11.21593
426 1 1.90611 5.55440 11.27605
427 1 3.42739 5.33032 9.18827
428 1 1.66591 7.49276 9.34935
429 1 4.57777 0.95342 12.34604
430 1 2.97091 6.48080 12.25931
431 1 4.51932 6.58607 10.30316
432 1 2.83201 0.91284 10.45797
433 1 3.96586 3.72087 14.91297
434 1 1.93498 1.83248 7.64223
435 1 3.53153 1.77465 13.24632
436 1 2.02882 4.04729 13.12050
437 1 4.59963 4.62274 8.41385
438 1 2.99549 2.67164 8.52050
439 1 5.01086 2.88184 13.88871
440 1 3.01643 4.78689 13.75810
441 1 3.89109 3.66957 11.30935
442 1 1.86331 1.98957 11.52130
443 1 3.75849 1.82327 9.58913
444 1 1.87484 3.43543 9.35258
445 1 4.76034 4.83359 12.04743
446 1 2.75923 2.87676 12.34750
447 1 4.84623 2.83600 10.40201
448 1 2.57964 4.48528 10.26576
449 1 0.01396 7.32685 0.03470
450 1 5.51503 5.53460 0.06541
451 1 7.40289 5.72547 5.70908
452 1 5.75476 0.14540 5.73606
453 1 0.78147 1.03931 1.04912
454 1 6.59573 6.50361 1.09231
455 1 0.86005 6.46392 6.53213
456 1 6.99133 0.80822 6.69752
457 1 0.12829 0.04602 3.82460
458 1 5.41328 5.84619 3.70285
459 1 7.49741 5.68386 2.06970
460 1 5.54004 7.52054 1.97706
461 1 0.93035 1.13471 4.77064
462 1 6.57678 6.61447 4.56191
463 1 1.01381 6.57641 2.94115
464 1 6.70425 0.86291 2.90394
465 1 7.47868 3.91288 0.03684
466 1 5.98070 1.73447 7.50382
467 1 7.34628 2.00130 5.70913
468 1 5.71347 3.96904 5.35260
469 1 0.94233 4.94891 1.21367
470 1 6.42959 2.98501 0.96535
471 1 1.03932 2.84274 6.71817
472 1 6.43108 4.60631 6.44663
473 1 7.33973 3.87903 3.56482
474 1 5.68811 1.70948 3.90152
475 1 7.29486 1.85570 1.94566
476 1 5.62575 3.90475 1.93336
477 1 0.81617 4.77860 4.60228
478 1 6.66167 2.73183 4.69581
479 1 0.98526 2.63326 2.76340
480 1 6.50536 4.85255 2.83570
481 1 3.72977 7.47315 7.47099
482 1 1.82327 5.53977 7.10774
483 1 4.09422 5.79301 5.63120
484 1 1.94033 7.48399 5.58419
485 1 5.02934 0.71051 0.74760
486 1 2.49298 6.76873 0.67210
487 1 4.82365 6.78692 6.71470
488 1 2.75457 0.83657 6.67572
489 1 3.72372 0.03500 3.69458
490 1 1.90611 5.55440 3.75470
491 1 3.42739 5.33032 1.66692
492 1 1.66591 7.49276 1.82800
493 1 4.57777 0.95342 4.82469
494 1 2.97091 6.48080 4.73796
495 1 4.51932 6.58607 2.78181
496 1 2.83201 0.91284 2.93662
497 1 3.96586 3.72087 7.39162
498 1 1.93498 1.83248 0.12088
499 1 3.53153 1.77465 5.72497
500 1 2.02882 4.04729 5.59915
501 1 4.59963 4.62274 0.89250
502 1 2.99549 2.67164 0.99915
503 1 5.01086 2.88184 6.36736
504 1 3.01643 4.78689 6.23675
505 1 3.89109 3.66957 3.78800
506 1 1.86331 1.98957 3.99995
507 1 3.75849 1.82327 2.06778
508 1 1.87484 3.43543 1.83123
509 1 4.76034 4.83359 4.52608
510 1 2.75923 2.87676 4.82615
511 1 4.84623 2.83600 2.88066
512 1 2.57964 4.48528 2.74441
