# 300K_diam-pace 

216 atoms
1 atom types

0 10.653553631 xlo xhi
0 10.653553631 ylo yhi
0 10.653553631 zlo zhi

0.00000000 0.00000000 0.00000000 xy xz yz

Masses

1 12.0107

Atoms

1 1 11.097423631 11.097423632 11.097423627000001
2 1 13.760833630999999 13.760833631999999 13.760833627
3 1 12.873043631 11.097423632 12.873043627000001
4 1 11.985233631 13.760843632 11.985233627000001
5 1 11.097423631 12.873043632 12.873043627000001
6 1 13.760843631 11.985233632 11.985233627000001
7 1 12.873043631 12.873043632 11.097423627000001
8 1 11.985233631 11.985233632 13.760843627
9 1 11.097423631 11.097423632 14.648643627
10 1 13.760833630999999 13.760833631999999 17.312013627
11 1 12.873033630999998 11.097413632 16.424233627
12 1 11.985223631 13.760833631999999 15.536433627000001
13 1 11.097413631 12.873033631999999 16.424233627
14 1 13.760833630999999 11.985223632 15.536433627000001
15 1 12.873033630999998 12.873033631999999 14.648633627
16 1 11.985223631 11.985223632 17.312023627000002
17 1 11.097413631 11.097413632 18.199813627
18 1 13.760823631 13.760823632 20.863263627000002
19 1 12.873033630999998 11.097413632 19.975363627
20 1 11.985223631 13.760833631999999 19.087623627
21 1 11.097413631 12.873033631999999 19.975363627
22 1 13.760833630999999 11.985223632 19.087623627
23 1 12.873033630999998 12.873033631999999 18.199803627
24 1 11.985223631 11.985223632 20.863263627000002
25 1 11.097423631 14.648643631999999 11.097423627000001
26 1 13.760833630999999 17.312013632 13.760833627
27 1 12.873033630999998 14.648633632 12.873033627000002
28 1 11.985223631 17.312023632 11.985223627
29 1 11.097413631 16.424233632 12.873033627000002
30 1 13.760833630999999 15.536433632 11.985223627
31 1 12.873033630999998 16.424233632 11.097413627000002
32 1 11.985223631 15.536433632 13.760833627
33 1 11.097413631 14.648633632 14.648633627
34 1 13.760823631 17.312013632 17.312013627
35 1 12.873033630999998 14.648633632 16.424223627
36 1 11.985213630999999 17.312013632 15.536423627000001
37 1 11.097413631 16.424223632 16.424223627
38 1 13.760833630999999 15.536423631999998 15.536423627000001
39 1 12.873033630999998 16.424223632 14.648633627
40 1 11.985223631 15.536423631999998 17.312013627
41 1 11.097413631 14.648633632 18.199803627
42 1 13.760823631 17.312003632 20.863253627
43 1 12.873023630999999 14.648623632 19.975353627
44 1 11.985213630999999 17.312013632 19.087623627
45 1 11.097403630999999 16.424213632 19.975353627
46 1 13.760823631 15.536423631999998 19.087623627
47 1 12.873023630999999 16.424213632 18.199803627
48 1 11.985213630999999 15.536423631999998 20.863263627000002
49 1 11.097413631 18.199813632 11.097413627000002
50 1 13.760823631 20.863263632 13.760823627
51 1 12.873033630999998 18.199803632 12.873033627000002
52 1 11.985223631 20.863263632 11.985223627
53 1 11.097413631 19.975363631999997 12.873033627000002
54 1 13.760833630999999 19.087623632 11.985223627
55 1 12.873033630999998 19.975363631999997 11.097413627000002
56 1 11.985223631 19.087623632 13.760833627
57 1 11.097413631 18.199803632 14.648633627
58 1 13.760823631 20.863253632 17.312003627000003
59 1 12.873023630999999 18.199803632 16.424213627
60 1 11.985213630999999 20.863263632 15.536423627000001
61 1 11.097403630999999 19.975353632 16.424213627
62 1 13.760823631 19.087623632 15.536423627000001
63 1 12.873023630999999 19.975353632 14.648623627000001
64 1 11.985213630999999 19.087623632 17.312013627
65 1 11.097403630999999 18.199803632 18.199803627
66 1 13.760813631 20.863243632 20.863243627000003
67 1 12.873023630999999 18.199793632 19.975353627
68 1 11.985203631 20.863253632 19.087613627000003
69 1 11.097403630999999 19.975353632 19.975353627
70 1 13.760823631 19.087613632 19.087613627000003
71 1 12.873023630999999 19.975353632 18.199793627000002
72 1 11.985203631 19.087613632 20.863253627
73 1 14.648643630999999 11.097423632 11.097423627000001
74 1 17.312013631 13.760833631999999 13.760833627
75 1 16.424233631 11.097413632 12.873033627000002
76 1 15.536433631 13.760833631999999 11.985223627
77 1 14.648633631 12.873033631999999 12.873033627000002
78 1 17.312023631 11.985223632 11.985223627
79 1 16.424233631 12.873033631999999 11.097413627000002
80 1 15.536433631 11.985223632 13.760833627
81 1 14.648633631 11.097413632 14.648633627
82 1 17.312013631 13.760823632 17.312013627
83 1 16.424223631 11.097413632 16.424223627
84 1 15.536423630999998 13.760833631999999 15.536423627000001
85 1 14.648633631 12.873033631999999 16.424223627
86 1 17.312013631 11.985223632 15.536423627000001
87 1 16.424223631 12.873033631999999 14.648633627
88 1 15.536423630999998 11.985223632 17.312013627
89 1 14.648633631 11.097413632 18.199803627
90 1 17.312003631 13.760823632 20.863253627
91 1 16.424213631 11.097403631999999 19.975353627
92 1 15.536423630999998 13.760823632 19.087623627
93 1 14.648623631 12.873023631999999 19.975353627
94 1 17.312013631 11.985213631999999 19.087623627
95 1 16.424213631 12.873023631999999 18.199803627
96 1 15.536423630999998 11.985213631999999 20.863263627000002
97 1 14.648633631 14.648633632 11.097413627000002
98 1 17.312013631 17.312013632 13.760823627
99 1 16.424223631 14.648633632 12.873033627000002
100 1 15.536423630999998 17.312013632 11.985223627
101 1 14.648633631 16.424223632 12.873033627000002
102 1 17.312013631 15.536423631999998 11.985223627
103 1 16.424223631 16.424223632 11.097413627000002
104 1 15.536423630999998 15.536423631999998 13.760833627
105 1 14.648633631 14.648633632 14.648633627
106 1 17.312003631 17.312003632 17.312003627000003
107 1 16.424213631 14.648623632 16.424213627
108 1 15.536423630999998 17.312013632 15.536423627000001
109 1 14.648623631 16.424213632 16.424213627
110 1 17.312013631 15.536423631999998 15.536423627000001
111 1 16.424213631 16.424213632 14.648623627000001
112 1 15.536423630999998 15.536423631999998 17.312013627
113 1 14.648623631 14.648623632 18.199803627
114 1 17.312003631 17.312003632 20.863243627000003
115 1 16.424213631 14.648613632 19.975353627
116 1 15.536413630999999 17.312003632 19.087613627000003
117 1 14.648613631 16.424213632 19.975353627
118 1 17.312003631 15.536413631999999 19.087613627000003
119 1 16.424213631 16.424213632 18.199793627000002
120 1 15.536413630999999 15.536413631999999 20.863253627
121 1 14.648633631 18.199803632 11.097413627000002
122 1 17.312003631 20.863253632 13.760823627
123 1 16.424213631 18.199803632 12.873023627
124 1 15.536423630999998 20.863263632 11.985213627
125 1 14.648623631 19.975353632 12.873023627
126 1 17.312013631 19.087623632 11.985213627
127 1 16.424213631 19.975353632 11.097403627
128 1 15.536423630999998 19.087623632 13.760823627
129 1 14.648623631 18.199803632 14.648623627000001
130 1 17.312003631 20.863243632 17.312003627000003
131 1 16.424213631 18.199793632 16.424213627
132 1 15.536413630999999 20.863253632 15.536413627000002
133 1 14.648613631 19.975353632 16.424213627
134 1 17.312003631 19.087613632 15.536413627000002
135 1 16.424213631 19.975353632 14.648613627000001
136 1 15.536413630999999 19.087613632 17.312003627000003
137 1 14.648613631 18.199793632 18.199793627000002
138 1 17.311993631 20.863243632 20.863243627000003
139 1 16.424203630999997 18.199793632 19.975343627
140 1 15.536413630999999 20.863243632 19.087613627000003
141 1 14.648613631 19.975343631999998 19.975343627
142 1 17.312003631 19.087613632 19.087613627000003
143 1 16.424203630999997 19.975343631999998 18.199793627000002
144 1 15.536413630999999 19.087613632 20.863243627000003
145 1 18.199813630999998 11.097413632 11.097413627000002
146 1 20.863263631 13.760823632 13.760823627
147 1 19.975363631 11.097413632 12.873033627000002
148 1 19.087623631 13.760833631999999 11.985223627
149 1 18.199803630999998 12.873033631999999 12.873033627000002
150 1 20.863263631 11.985223632 11.985223627
151 1 19.975363631 12.873033631999999 11.097413627000002
152 1 19.087623631 11.985223632 13.760833627
153 1 18.199803630999998 11.097413632 14.648633627
154 1 20.863253631 13.760823632 17.312003627000003
155 1 19.975353630999997 11.097403631999999 16.424213627
156 1 19.087623631 13.760823632 15.536423627000001
157 1 18.199803630999998 12.873023631999999 16.424213627
158 1 20.863263631 11.985213631999999 15.536423627000001
159 1 19.975353630999997 12.873023631999999 14.648623627000001
160 1 19.087623631 11.985213631999999 17.312013627
161 1 18.199803630999998 11.097403631999999 18.199803627
162 1 20.863243631 13.760813632 20.863243627000003
163 1 19.975353630999997 11.097403631999999 19.975353627
164 1 19.087613631 13.760823632 19.087613627000003
165 1 18.199793631 12.873023631999999 19.975353627
166 1 20.863253631 11.985203632 19.087613627000003
167 1 19.975353630999997 12.873023631999999 18.199793627000002
168 1 19.087613631 11.985203632 20.863253627
169 1 18.199803630999998 14.648633632 11.097413627000002
170 1 20.863253631 17.312003632 13.760823627
171 1 19.975353630999997 14.648623632 12.873023627
172 1 19.087623631 17.312013632 11.985213627
173 1 18.199803630999998 16.424213632 12.873023627
174 1 20.863263631 15.536423631999998 11.985213627
175 1 19.975353630999997 16.424213632 11.097403627
176 1 19.087623631 15.536423631999998 13.760823627
177 1 18.199803630999998 14.648623632 14.648623627000001
178 1 20.863243631 17.312003632 17.312003627000003
179 1 19.975353630999997 14.648613632 16.424213627
180 1 19.087613631 17.312003632 15.536413627000002
181 1 18.199793631 16.424213632 16.424213627
182 1 20.863253631 15.536413631999999 15.536413627000002
183 1 19.975353630999997 16.424213632 14.648613627000001
184 1 19.087613631 15.536413631999999 17.312003627000003
185 1 18.199793631 14.648613632 18.199793627000002
186 1 20.863243631 17.311993632 20.863243627000003
187 1 19.975343631 14.648613632 19.975343627
188 1 19.087613631 17.312003632 19.087613627000003
189 1 18.199793631 16.424203632 19.975343627
190 1 20.863243631 15.536413631999999 19.087613627000003
191 1 19.975343631 16.424203632 18.199793627000002
192 1 19.087613631 15.536413631999999 20.863243627000003
193 1 18.199803630999998 18.199803632 11.097403627
194 1 20.863243631 20.863243632 13.760813627000001
195 1 19.975353630999997 18.199793632 12.873023627
196 1 19.087613631 20.863253632 11.985203627
197 1 18.199793631 19.975353632 12.873023627
198 1 20.863253631 19.087613632 11.985203627
199 1 19.975353630999997 19.975353632 11.097403627
200 1 19.087613631 19.087613632 13.760823627
201 1 18.199793631 18.199793632 14.648613627000001
202 1 20.863243631 20.863243632 17.311993627
203 1 19.975343631 18.199793632 16.424203627
204 1 19.087613631 20.863243632 15.536413627000002
205 1 18.199793631 19.975343631999998 16.424203627
206 1 20.863243631 19.087613632 15.536413627000002
207 1 19.975343631 19.975343631999998 14.648613627000001
208 1 19.087613631 19.087613632 17.312003627000003
209 1 18.199793631 18.199793632 18.199793627000002
210 1 20.863233631 20.863233632 20.863233627
211 1 19.975343631 18.199783632 19.975343627
212 1 19.087603631 20.863243632 19.087603627
213 1 18.199783631 19.975343631999998 19.975343627
214 1 20.863243631 19.087603631999997 19.087603627
215 1 19.975343631 19.975343631999998 18.199783627000002
216 1 19.087603631 19.087603631999997 20.863243627000003
