# CASE-1_INDEP_0-pace 

384 atoms
1 atom types

0 11.529160757 xlo xhi
0 16.933606718 ylo yhi
0 14.669600754 zlo zhi

0.00000000 0.00000000 0.00000000 xy xz yz

Masses

1 12.0107

Atoms

1 1 0.00024 0.02490 14.66949
2 1 0.00015 2.14152 1.22237
3 1 2.88309 16.90895 14.66956
4 1 2.88235 2.09196 1.22234
5 1 0.00069 16.25274 1.22247
6 1 0.00014 1.43585 2.44484
7 1 2.88229 0.68094 1.22234
8 1 2.88239 2.79765 2.44482
9 1 5.76461 0.02515 0.00055
10 1 5.76471 2.14185 1.22303
11 1 8.64767 16.90916 0.00003
12 1 8.64693 2.09217 1.22240
13 1 5.76526 16.25308 1.22311
14 1 5.76470 1.43618 2.44548
15 1 8.64687 0.68116 1.22241
16 1 8.64697 2.79787 2.44488
17 1 0.00040 4.25830 14.66951
18 1 0.00031 6.37492 1.22239
19 1 2.88260 4.20874 14.66948
20 1 2.88251 6.32536 1.22236
21 1 0.00020 3.55254 1.22239
22 1 0.00030 5.66925 2.44487
23 1 2.88245 4.91434 1.22236
24 1 2.88255 7.03105 2.44484
25 1 5.76477 4.25854 0.00057
26 1 5.76487 6.37525 1.22305
27 1 8.64718 4.20896 14.66955
28 1 8.64709 6.32557 1.22243
29 1 5.76476 3.55287 1.22302
30 1 5.76486 5.66958 2.44550
31 1 8.64703 4.91456 1.22243
32 1 8.64713 7.03127 2.44491
33 1 0.00008 0.02482 2.44482
34 1 0.00018 2.14153 3.66730
35 1 2.88293 16.90887 2.44490
36 1 2.88238 2.09197 3.66727
37 1 0.00072 16.25276 3.66740
38 1 0.00017 1.43586 4.88977
39 1 2.88232 0.68095 3.66727
40 1 2.88242 2.79766 4.88975
41 1 5.76465 0.02516 2.44549
42 1 5.76473 2.14186 3.66797
43 1 8.64751 16.90909 2.44496
44 1 8.64696 2.09219 3.66734
45 1 5.76528 16.25309 3.66805
46 1 5.76472 1.43618 4.89042
47 1 8.64690 0.68117 3.66734
48 1 8.64700 2.79788 4.88982
49 1 0.00025 4.25822 2.44485
50 1 0.00034 6.37493 3.66733
51 1 2.88244 4.20866 2.44481
52 1 2.88254 6.32537 3.66729
53 1 0.00023 3.55256 3.66732
54 1 0.00033 5.66926 4.88980
55 1 2.88249 4.91436 3.66730
56 1 2.88258 7.03106 4.88978
57 1 5.76480 4.25856 2.44550
58 1 5.76491 6.37527 3.66798
59 1 8.64702 4.20888 2.44488
60 1 8.64712 6.32559 3.66736
61 1 5.76479 3.55288 3.66795
62 1 5.76490 5.66960 4.89043
63 1 8.64707 4.91457 3.66736
64 1 8.64716 7.03128 4.88984
65 1 0.00012 0.02484 4.88975
66 1 0.00021 2.14155 6.11223
67 1 2.88296 16.90889 4.88983
68 1 2.88241 2.09199 6.11220
69 1 0.00075 16.25278 6.11233
70 1 0.00020 1.43588 7.33471
71 1 2.88235 0.68097 6.11220
72 1 2.88245 2.79768 7.33468
73 1 5.76466 0.02516 4.89043
74 1 5.76476 2.14187 6.11290
75 1 8.64754 16.90910 4.88990
76 1 8.64699 2.09220 6.11227
77 1 5.76530 16.25309 6.11298
78 1 5.76475 1.43619 7.33535
79 1 8.64693 0.68119 6.11227
80 1 8.64703 2.79789 7.33475
81 1 0.00028 4.25824 4.88978
82 1 0.00037 6.37495 6.11226
83 1 2.88248 4.20868 4.88975
84 1 2.88257 6.32539 6.11223
85 1 0.00026 3.55257 6.11225
86 1 0.00036 5.66928 7.33473
87 1 2.88252 4.91437 6.11223
88 1 2.88261 7.03108 7.33471
89 1 5.76484 4.25857 4.89044
90 1 5.76496 6.37529 6.11291
91 1 8.64705 4.20890 4.88982
92 1 8.64715 6.32561 6.11229
93 1 5.76482 3.55290 6.11288
94 1 5.76494 5.66961 7.33536
95 1 8.64710 4.91459 6.11230
96 1 8.64719 7.03130 7.33478
97 1 0.00015 0.02485 7.33469
98 1 0.00024 2.14156 8.55717
99 1 2.88299 16.90890 7.33476
100 1 2.88244 2.09200 8.55714
101 1 0.00078 16.25279 8.55727
102 1 0.00023 1.43589 9.77964
103 1 2.88239 0.68099 8.55714
104 1 2.88248 2.79769 9.77962
105 1 5.76468 0.02517 7.33536
106 1 5.76478 2.14188 8.55783
107 1 8.64757 16.90912 7.33483
108 1 8.64702 2.09222 8.55720
109 1 5.76533 16.25310 8.55791
110 1 5.76478 1.43621 9.78028
111 1 8.64697 0.68120 8.55720
112 1 8.64706 2.79791 9.77968
113 1 0.00031 4.25825 7.33471
114 1 0.00040 6.37496 8.55719
115 1 2.88251 4.20870 7.33468
116 1 2.88260 6.32540 8.55716
117 1 0.00029 3.55259 8.55719
118 1 0.00039 5.66929 9.77967
119 1 2.88255 4.91439 8.55716
120 1 2.88264 7.03109 9.77964
121 1 5.76487 4.25858 7.33537
122 1 5.76498 6.37529 8.55784
123 1 8.64709 4.20891 7.33475
124 1 8.64718 6.32562 8.55723
125 1 5.76485 3.55291 8.55782
126 1 5.76495 5.66962 9.78029
127 1 8.64713 4.91460 8.55723
128 1 8.64722 7.03131 9.77971
129 1 0.00018 0.02487 9.77962
130 1 0.00027 2.14158 11.00210
131 1 2.88302 16.90892 9.77969
132 1 2.88247 2.09202 11.00207
133 1 0.00081 16.25281 11.00220
134 1 0.00026 1.43591 12.22457
135 1 2.88242 0.68100 11.00207
136 1 2.88251 2.79771 12.22455
137 1 5.76472 0.02519 9.78029
138 1 5.76482 2.14190 11.00276
139 1 8.64760 16.90913 9.77976
140 1 8.64705 2.09223 11.00214
141 1 5.76536 16.25313 11.00285
142 1 5.76482 1.43623 12.22521
143 1 8.64700 0.68122 11.00214
144 1 8.64709 2.79793 12.22462
145 1 0.00034 4.25827 9.77965
146 1 0.00043 6.37498 11.00213
147 1 2.88254 4.20871 9.77961
148 1 2.88263 6.32542 11.00209
149 1 0.00033 3.55260 11.00212
150 1 0.00042 5.66931 12.22460
151 1 2.88258 4.91440 11.00209
152 1 2.88268 7.03111 12.22457
153 1 5.76489 4.25859 9.78030
154 1 5.76499 6.37531 11.00278
155 1 8.64712 4.20893 9.77968
156 1 8.64721 6.32564 11.00216
157 1 5.76488 3.55292 11.00275
158 1 5.76498 5.66964 12.22523
159 1 8.64716 4.91462 11.00216
160 1 8.64726 7.03133 12.22464
161 1 0.00021 0.02488 12.22456
162 1 0.00030 2.14159 13.44703
163 1 2.88306 16.90893 12.22463
164 1 2.88250 2.09203 13.44700
165 1 0.00084 16.25282 13.44713
166 1 0.00029 1.43592 14.66951
167 1 2.88245 0.68102 13.44700
168 1 2.88255 2.79772 14.66948
169 1 5.76476 0.02521 12.22522
170 1 5.76486 2.14192 13.44769
171 1 8.64763 16.90915 12.22470
172 1 8.64708 2.09225 13.44707
173 1 5.76541 16.25315 13.44778
174 1 5.76467 1.43616 0.00055
175 1 8.64703 0.68123 13.44707
176 1 8.64713 2.79794 14.66955
177 1 0.00037 4.25828 12.22458
178 1 0.00047 6.37499 13.44706
179 1 2.88257 4.20872 12.22455
180 1 2.88267 6.32543 13.44703
181 1 0.00036 3.55262 13.44705
182 1 0.00045 5.66932 14.66953
183 1 2.88261 4.91442 13.44703
184 1 2.88271 7.03112 14.66951
185 1 5.76493 4.25861 12.22523
186 1 5.76502 6.37532 13.44771
187 1 8.64715 4.20894 12.22462
188 1 8.64724 6.32565 13.44709
189 1 5.76492 3.55294 13.44769
190 1 5.76483 5.66956 0.00056
191 1 8.64719 4.91463 13.44710
192 1 8.64729 7.03134 14.66958
193 1 0.00056 8.49170 14.66954
194 1 0.00047 10.60832 1.22242
195 1 2.88276 8.44214 14.66951
196 1 2.88267 10.55876 1.22239
197 1 0.00036 7.78594 1.22241
198 1 0.00046 9.90265 2.44489
199 1 2.88262 9.14774 1.22239
200 1 2.88271 11.26445 2.44487
201 1 5.76494 8.49195 0.00060
202 1 5.76504 10.60866 1.22308
203 1 8.64734 8.44236 14.66957
204 1 8.64725 10.55898 1.22245
205 1 5.76493 7.78628 1.22305
206 1 5.76503 9.90299 2.44553
207 1 8.64720 9.14796 1.22246
208 1 8.64729 11.26467 2.44494
209 1 0.00073 12.72510 14.66957
210 1 0.00063 14.84172 1.22245
211 1 2.88293 12.67554 14.66953
212 1 2.88283 14.79216 1.22241
213 1 0.00052 12.01934 1.22244
214 1 0.00062 14.13605 2.44492
215 1 2.88278 13.38114 1.22242
216 1 2.88287 15.49785 2.44490
217 1 5.76511 12.72536 0.00064
218 1 5.76521 14.84207 1.22312
219 1 8.64751 12.67576 14.66960
220 1 8.64741 14.79238 1.22248
221 1 5.76510 12.01969 1.22308
222 1 5.76519 14.13639 2.44557
223 1 8.64736 13.38136 1.22248
224 1 8.64746 15.49807 2.44496
225 1 0.00041 8.49163 2.44487
226 1 0.00050 10.60833 3.66735
227 1 2.88261 8.44207 2.44484
228 1 2.88270 10.55877 3.66732
229 1 0.00039 7.78596 3.66735
230 1 0.00049 9.90267 4.88983
231 1 2.88265 9.14776 3.66732
232 1 2.88274 11.26447 4.88980
233 1 5.76497 8.49197 2.44553
234 1 5.76507 10.60868 3.66802
235 1 8.64719 8.44228 2.44491
236 1 8.64728 10.55899 3.66739
237 1 5.76497 7.78630 3.66798
238 1 5.76506 9.90300 4.89046
239 1 8.64723 9.14797 3.66739
240 1 8.64732 11.26468 4.88987
241 1 0.00057 12.72503 2.44490
242 1 0.00067 14.84174 3.66738
243 1 2.88277 12.67547 2.44487
244 1 2.88286 14.79218 3.66735
245 1 0.00056 12.01936 3.66737
246 1 0.00065 14.13607 4.88985
247 1 2.88281 13.38116 3.66735
248 1 2.88291 15.49787 4.88983
249 1 5.76514 12.72537 2.44557
250 1 5.76523 14.84207 3.66805
251 1 8.64735 12.67569 2.44494
252 1 8.64744 14.79239 3.66742
253 1 5.76513 12.01970 3.66802
254 1 5.76521 14.13640 4.89050
255 1 8.64739 13.38138 3.66742
256 1 8.64749 15.49809 4.88990
257 1 0.00044 8.49164 4.88981
258 1 0.00053 10.60835 6.11229
259 1 2.88264 8.44208 4.88977
260 1 2.88274 10.55879 6.11225
261 1 0.00043 7.78597 6.11228
262 1 0.00052 9.90268 7.33476
263 1 2.88268 9.14777 6.11225
264 1 2.88278 11.26448 7.33474
265 1 5.76501 8.49198 4.89046
266 1 5.76510 10.60868 6.11295
267 1 8.64722 8.44230 4.88984
268 1 8.64731 10.55901 6.11232
269 1 5.76501 7.78631 6.11291
270 1 5.76509 9.90301 7.33540
271 1 8.64726 9.14799 6.11232
272 1 8.64736 11.26470 7.33480
273 1 0.00060 12.72504 4.88983
274 1 0.00070 14.84175 6.11231
275 1 2.88280 12.67548 4.88980
276 1 2.88290 14.79219 6.11228
277 1 0.00059 12.01937 6.11231
278 1 0.00068 14.13608 7.33479
279 1 2.88284 13.38118 6.11228
280 1 2.88294 15.49788 7.33476
281 1 5.76516 12.72538 4.89050
282 1 5.76524 14.84207 6.11299
283 1 8.64738 12.67570 4.88987
284 1 8.64747 14.79241 6.11235
285 1 5.76515 12.01970 6.11295
286 1 5.76523 14.13640 7.33544
287 1 8.64742 13.38139 6.11235
288 1 8.64752 15.49810 7.33483
289 1 0.00047 8.49166 7.33474
290 1 0.00057 10.60836 8.55722
291 1 2.88267 8.44210 7.33471
292 1 2.88277 10.55880 8.55719
293 1 0.00046 7.78599 8.55721
294 1 0.00055 9.90270 9.77969
295 1 2.88271 9.14779 8.55719
296 1 2.88281 11.26450 9.77967
297 1 5.76505 8.49199 7.33540
298 1 5.76513 10.60869 8.55789
299 1 8.64725 8.44231 7.33477
300 1 8.64734 10.55902 8.55726
301 1 5.76503 7.78632 8.55784
302 1 5.76511 9.90302 9.78033
303 1 8.64729 9.14800 8.55726
304 1 8.64739 11.26471 9.77974
305 1 0.00063 12.72506 7.33477
306 1 0.00073 14.84177 8.55725
307 1 2.88283 12.67550 7.33473
308 1 2.88293 14.79221 8.55721
309 1 0.00062 12.01939 8.55724
310 1 0.00072 14.13610 9.77972
311 1 2.88287 13.38119 8.55722
312 1 2.88297 15.49790 9.77970
313 1 5.76518 12.72538 7.33544
314 1 5.76527 14.84209 8.55792
315 1 8.64741 12.67572 7.33480
316 1 8.64751 14.79242 8.55728
317 1 5.76517 12.01971 8.55789
318 1 5.76527 14.13642 9.78037
319 1 8.64745 13.38141 8.55728
320 1 8.64755 15.49812 9.77976
321 1 0.00050 8.49167 9.77967
322 1 0.00060 10.60838 11.00215
323 1 2.88270 8.44211 9.77964
324 1 2.88280 10.55882 11.00212
325 1 0.00049 7.78600 11.00215
326 1 0.00058 9.90271 12.22463
327 1 2.88274 9.14780 11.00212
328 1 2.88284 11.26451 12.22460
329 1 5.76507 8.49200 9.78033
330 1 5.76515 10.60871 11.00282
331 1 8.64728 8.44233 9.77971
332 1 8.64738 10.55904 11.00219
333 1 5.76505 7.78633 11.00278
334 1 5.76515 9.90304 12.22527
335 1 8.64732 9.14802 11.00219
336 1 8.64742 11.26473 12.22467
337 1 0.00066 12.72507 9.77970
338 1 0.00076 14.84178 11.00218
339 1 2.88286 12.67551 9.77967
340 1 2.88296 14.79222 11.00215
341 1 0.00065 12.01940 11.00217
342 1 0.00075 14.13611 12.22465
343 1 2.88290 13.38120 11.00215
344 1 2.88300 15.49791 12.22463
345 1 5.76521 12.72540 9.78037
346 1 5.76531 14.84211 11.00285
347 1 8.64744 12.67573 9.77974
348 1 8.64754 14.79244 11.00222
349 1 5.76521 12.01973 11.00282
350 1 5.76531 14.13644 12.22530
351 1 8.64748 13.38142 11.00222
352 1 8.64758 15.49813 12.22470
353 1 0.00053 8.49169 12.22461
354 1 0.00063 10.60840 13.44709
355 1 2.88273 8.44213 12.22457
356 1 2.88283 10.55883 13.44705
357 1 0.00052 7.78602 13.44708
358 1 0.00062 9.90273 14.66956
359 1 2.88277 9.14782 13.44705
360 1 2.88287 11.26453 14.66953
361 1 5.76509 8.49202 12.22526
362 1 5.76519 10.60873 13.44775
363 1 8.64731 8.44234 12.22464
364 1 8.64741 10.55905 13.44712
365 1 5.76508 7.78635 13.44771
366 1 5.76500 9.90297 0.00060
367 1 8.64735 9.14804 13.44712
368 1 8.64745 11.26474 14.66960
369 1 0.00069 12.72509 12.22463
370 1 0.00079 14.84180 13.44711
371 1 2.88289 12.67553 12.22460
372 1 2.88299 14.79224 13.44708
373 1 0.00068 12.01942 13.44711
374 1 0.00078 14.13613 14.66959
375 1 2.88293 13.38122 13.44708
376 1 2.88303 15.49793 14.66956
377 1 5.76526 12.72542 12.22530
378 1 5.76536 14.84214 13.44778
379 1 8.64747 12.67575 12.22467
380 1 8.64757 14.79246 13.44715
381 1 5.76525 12.01976 13.44775
382 1 5.76516 14.13638 0.00063
383 1 8.64752 13.38144 13.44715
384 1 8.64761 15.49815 0.00003
